Ba Sr Ti  O                             
   1.00000000000000     
     7.9809042483144124    0.0000000000000000    0.0000000000000000
     0.0000000000000000    7.8552157894736840    0.0000000000000000
     0.0000000000000000    0.0000000000000000    7.8552157894736840
   Ba   Sr   Ti   O 
     4     4     8    24
Direct
  0.9955104866745035  0.0148464463109312  0.0471339836393803
  0.9954678691224408  0.5148528215229767  0.5471377306669429
  0.4954889910909755  0.5148541366356020  0.0471403600174004
  0.4954774346591052  0.0148562024841504  0.5471326893035521
  0.4920609748940243  0.0147815609399482  0.0470050619457868
  0.9920750290122352  0.5147466390518850  0.0470491444981002
  0.9921003299012893  0.0148058038522806  0.5469802930660319
  0.4921253582081407  0.5147551622119733  0.5469961256906886
  0.7408519722329767  0.2647823401754087  0.2970255533230072
  0.2408514880461378  0.2647921909937546  0.2970275473413688
  0.7408763035865147  0.7647865622748005  0.2970442098172185
  0.2408703669417319  0.7647801000389508  0.2970483185315198
  0.7408582127001716  0.2647997309170516  0.7970197477604050
  0.2408623633878983  0.2648091550435530  0.7970277848110067
  0.7408915495895039  0.7648116858091962  0.7970463936068566
  0.2408874618193754  0.7647920993148709  0.7970486616997059
  0.0022593026179484  0.2649131282660211  0.2971943236594745
  0.5022743199788997  0.2649385556566096  0.2973155056843888
  0.0022958154318247  0.7649006391894109  0.2972428569277414
  0.5023100467521809  0.7648723134734159  0.2972244540819315
  0.0022795117836662  0.2649901886946377  0.7973158033481013
  0.5023042683591081  0.2648276119048870  0.7971936619265929
  0.0023175942278038  0.7648032725912987  0.7972496379612314
  0.5023406859321798  0.7649562501108107  0.7972510458812572
  0.7516035971201415  0.0149028460351190  0.2979814735869449
  0.2515692247853557  0.0149251284642269  0.2965220729010550
  0.7515396781422577  0.5148959387454924  0.2965499912955817
  0.2515748403722202  0.5149201718157427  0.2980072944912727
  0.7516935895203464  0.0148972010298996  0.7964975700336041
  0.2515928801504683  0.0149197977873892  0.7980100368167320
  0.7515491859375926  0.5148894217592767  0.7979821598300130
  0.2516661501954712  0.5149144447134339  0.7964850754296456
  0.7515164763514119  0.2655352930188684  0.0472644658112570
  0.2515988411899731  0.2642570936093342  0.0472682442189033
  0.7516385288986693  0.7641853434115433  0.0472575670488740
  0.2516274216667482  0.7655923139827703  0.0472627758467174
  0.7515895123102273  0.2641953603836061  0.5472623227849782
  0.2514730286173833  0.2655458976102469  0.5472607883338204
  0.7515883770649640  0.7655726762933106  0.5472545636430572
  0.2515759116719449  0.7642587556288714  0.5472548993231082
 
  0.00000000E+00  0.00000000E+00  0.00000000E+00
  0.00000000E+00  0.00000000E+00  0.00000000E+00
  0.00000000E+00  0.00000000E+00  0.00000000E+00
  0.00000000E+00  0.00000000E+00  0.00000000E+00
  0.00000000E+00  0.00000000E+00  0.00000000E+00
  0.00000000E+00  0.00000000E+00  0.00000000E+00
  0.00000000E+00  0.00000000E+00  0.00000000E+00
  0.00000000E+00  0.00000000E+00  0.00000000E+00
  0.00000000E+00  0.00000000E+00  0.00000000E+00
  0.00000000E+00  0.00000000E+00  0.00000000E+00
  0.00000000E+00  0.00000000E+00  0.00000000E+00
  0.00000000E+00  0.00000000E+00  0.00000000E+00
  0.00000000E+00  0.00000000E+00  0.00000000E+00
  0.00000000E+00  0.00000000E+00  0.00000000E+00
  0.00000000E+00  0.00000000E+00  0.00000000E+00
  0.00000000E+00  0.00000000E+00  0.00000000E+00
  0.00000000E+00  0.00000000E+00  0.00000000E+00
  0.00000000E+00  0.00000000E+00  0.00000000E+00
  0.00000000E+00  0.00000000E+00  0.00000000E+00
  0.00000000E+00  0.00000000E+00  0.00000000E+00
  0.00000000E+00  0.00000000E+00  0.00000000E+00
  0.00000000E+00  0.00000000E+00  0.00000000E+00
  0.00000000E+00  0.00000000E+00  0.00000000E+00
  0.00000000E+00  0.00000000E+00  0.00000000E+00
  0.00000000E+00  0.00000000E+00  0.00000000E+00
  0.00000000E+00  0.00000000E+00  0.00000000E+00
  0.00000000E+00  0.00000000E+00  0.00000000E+00
  0.00000000E+00  0.00000000E+00  0.00000000E+00
  0.00000000E+00  0.00000000E+00  0.00000000E+00
  0.00000000E+00  0.00000000E+00  0.00000000E+00
  0.00000000E+00  0.00000000E+00  0.00000000E+00
  0.00000000E+00  0.00000000E+00  0.00000000E+00
  0.00000000E+00  0.00000000E+00  0.00000000E+00
  0.00000000E+00  0.00000000E+00  0.00000000E+00
  0.00000000E+00  0.00000000E+00  0.00000000E+00
  0.00000000E+00  0.00000000E+00  0.00000000E+00
  0.00000000E+00  0.00000000E+00  0.00000000E+00
  0.00000000E+00  0.00000000E+00  0.00000000E+00
  0.00000000E+00  0.00000000E+00  0.00000000E+00
  0.00000000E+00  0.00000000E+00  0.00000000E+00
