Ba Sr Ti  O                             
   1.00000000000000     
     7.9480739771193329    0.0000000000000000    0.0000000000000000
     0.0000000000000000    7.8798789473684208    0.0000000000000000
     0.0000000000000000    0.0000000000000000    7.8798789473684208
   Ba   Sr   Ti   O 
     4     4     8    24
Direct
  0.9960852828740206  0.0148852378547908  0.0471887836919047
  0.9960456834988010  0.5149312724600031  0.5472415238103869
  0.4960761702796231  0.5149318705026134  0.0472028405449278
  0.4960649270647854  0.0149077587328608  0.5472379210522709
  0.4935107586233000  0.0149041134538630  0.0471759931785616
  0.9935316553638983  0.5147167584936286  0.0472753622541507
  0.9935617771654827  0.0149739125565256  0.5470031272520001
  0.4936449508744576  0.5147199879359537  0.5470325888850591
  0.7424906546571785  0.2648112138806853  0.2970831537733452
  0.2424835559569484  0.2648233344339525  0.2970948804951389
  0.7424317619167279  0.7648004715876003  0.2971957618076022
  0.2424129793666199  0.7647896391836648  0.2972260296524948
  0.7424378944514654  0.2649227635460089  0.7970795339798037
  0.2424402862010492  0.2649207091126287  0.7970927173626887
  0.7423687403237321  0.7649177643596704  0.7972044043897998
  0.2423607875717414  0.7648890445383545  0.7972258413170220
  0.0012441926023063  0.2649191745109251  0.2971460430576182
  0.5012472693242667  0.2648975469169887  0.2972831606119445
  0.0013430103171126  0.7648462047766665  0.2970682719808183
  0.5013557329898398  0.7648862532894556  0.2972111817636911
  0.0013376488517701  0.2649252774381193  0.7972988542932810
  0.5013463499408071  0.2647721261843833  0.7971793167912081
  0.0014337081372810  0.7647799585454328  0.7972980303927132
  0.5014478095986482  0.7649017559527489  0.7971204372951314
  0.7507708235964666  0.0148621863562279  0.2976713940946096
  0.2507324822496100  0.0149085269387347  0.2966151609518384
  0.7506878584657464  0.5148338419449801  0.2967133631348062
  0.2507430333696830  0.5148777514969219  0.2977644659586661
  0.7509615519362752  0.0148167584837580  0.7966390341363231
  0.2507042453910384  0.0148623843806339  0.7977816291716712
  0.7506309089899340  0.5147894262155219  0.7976739565786404
  0.2509417517740034  0.5148359548886597  0.7965568231276581
  0.7506826692581299  0.2653620433521157  0.0472110390233333
  0.2507588336695675  0.2643771540828036  0.0472224149294991
  0.7508800142283919  0.7642583271570594  0.0471536616814957
  0.2508547639351574  0.7654592864342818  0.0471708779515380
  0.7507750587879641  0.2642586087703503  0.5471893237897340
  0.2506103977348769  0.2653461095742322  0.5471786961415908
  0.7508166221965941  0.7654363882582568  0.5471376135114543
  0.2507803774105092  0.7644033831714949  0.5471269827688330
 
  0.00000000E+00  0.00000000E+00  0.00000000E+00
  0.00000000E+00  0.00000000E+00  0.00000000E+00
  0.00000000E+00  0.00000000E+00  0.00000000E+00
  0.00000000E+00  0.00000000E+00  0.00000000E+00
  0.00000000E+00  0.00000000E+00  0.00000000E+00
  0.00000000E+00  0.00000000E+00  0.00000000E+00
  0.00000000E+00  0.00000000E+00  0.00000000E+00
  0.00000000E+00  0.00000000E+00  0.00000000E+00
  0.00000000E+00  0.00000000E+00  0.00000000E+00
  0.00000000E+00  0.00000000E+00  0.00000000E+00
  0.00000000E+00  0.00000000E+00  0.00000000E+00
  0.00000000E+00  0.00000000E+00  0.00000000E+00
  0.00000000E+00  0.00000000E+00  0.00000000E+00
  0.00000000E+00  0.00000000E+00  0.00000000E+00
  0.00000000E+00  0.00000000E+00  0.00000000E+00
  0.00000000E+00  0.00000000E+00  0.00000000E+00
  0.00000000E+00  0.00000000E+00  0.00000000E+00
  0.00000000E+00  0.00000000E+00  0.00000000E+00
  0.00000000E+00  0.00000000E+00  0.00000000E+00
  0.00000000E+00  0.00000000E+00  0.00000000E+00
  0.00000000E+00  0.00000000E+00  0.00000000E+00
  0.00000000E+00  0.00000000E+00  0.00000000E+00
  0.00000000E+00  0.00000000E+00  0.00000000E+00
  0.00000000E+00  0.00000000E+00  0.00000000E+00
  0.00000000E+00  0.00000000E+00  0.00000000E+00
  0.00000000E+00  0.00000000E+00  0.00000000E+00
  0.00000000E+00  0.00000000E+00  0.00000000E+00
  0.00000000E+00  0.00000000E+00  0.00000000E+00
  0.00000000E+00  0.00000000E+00  0.00000000E+00
  0.00000000E+00  0.00000000E+00  0.00000000E+00
  0.00000000E+00  0.00000000E+00  0.00000000E+00
  0.00000000E+00  0.00000000E+00  0.00000000E+00
  0.00000000E+00  0.00000000E+00  0.00000000E+00
  0.00000000E+00  0.00000000E+00  0.00000000E+00
  0.00000000E+00  0.00000000E+00  0.00000000E+00
  0.00000000E+00  0.00000000E+00  0.00000000E+00
  0.00000000E+00  0.00000000E+00  0.00000000E+00
  0.00000000E+00  0.00000000E+00  0.00000000E+00
  0.00000000E+00  0.00000000E+00  0.00000000E+00
  0.00000000E+00  0.00000000E+00  0.00000000E+00
