Ba Sr Ti  O                             
   1.00000000000000     
     7.9377237634539872    0.0000000000000000    0.0000000000000000
     0.0000000000000000    7.8880999999999997    0.0000000000000000
     0.0000000000000000    0.0000000000000000    7.8880999999999997
   Ba   Sr   Ti   O 
     4     4     8    24
Direct
  0.9963387406600012  0.0149069603208212  0.0472293345805400
  0.9962947098326612  0.5149584651288515  0.5472904575602134
  0.4963225336140132  0.5149587548833465  0.0472477667417949
  0.4963136154172164  0.0149256677330972  0.5472808552628167
  0.4940655799180657  0.0149780116845330  0.0473039194764155
  0.9940929128519642  0.5148223457095462  0.0473974063969481
  0.9941241911740857  0.0150464409005415  0.5471623532655214
  0.4942015052719401  0.5148273750106105  0.5471861257178560
  0.7431883498744406  0.2649067153460329  0.2972390862168152
  0.2431850797242257  0.2649164501117205  0.2972515991135363
  0.7431098905722813  0.7649085633014409  0.2973721449036246
  0.2431020061954424  0.7648942599009223  0.2974003556807634
  0.7431331111610773  0.2650353123818804  0.7972359345773790
  0.2431246839367613  0.2650303199356954  0.7972504777410756
  0.7430415292394255  0.7650431044578891  0.7973748678825516
  0.2430289901230187  0.7650096981367911  0.7974077867526402
  0.0008293858375036  0.2649007424174580  0.2970849009718473
  0.5008344860506275  0.2648204527369858  0.2971867633419268
  0.0009332529593971  0.7647578093170870  0.2969567874729542
  0.5009427924504990  0.7648640382945556  0.2971412167760902
  0.0009204748739785  0.2648753034831293  0.7972087015122485
  0.5009173093762944  0.2647064942564787  0.7971297458368806
  0.0010234552012112  0.7647054024657362  0.7972310105964276
  0.5010232057406506  0.7648371205336109  0.7970103992409047
  0.7504072218486612  0.0148082290342111  0.2974999977394431
  0.2503930396899692  0.0148528562940392  0.2965977203072485
  0.7503426849549538  0.5147927188567074  0.2967116404423482
  0.2503872149753068  0.5148385339033956  0.2976061344230865
  0.7506364595045882  0.0147554104110057  0.7966297802012939
  0.2503617825104585  0.0148020273446319  0.7976077250161306
  0.7502812956761865  0.5147404754499947  0.7974869487471266
  0.2506303180885685  0.5147893578996926  0.7965327682942962
  0.7503342716389524  0.2652706866653519  0.0471270319399763
  0.2504227382659180  0.2643843454327755  0.0471282935338467
  0.7505327073659643  0.7642356970361902  0.0470624088032791
  0.2505545333455632  0.7653386404317767  0.0470674704633830
  0.7504464235466183  0.2642336085385487  0.5471153436803992
  0.2502582597044375  0.2652296182958513  0.5471133158919681
  0.7505243710954266  0.7653424820413857  0.5470541652699450
  0.2504298666774638  0.7644117856692382  0.5470514542117108
 
  0.00000000E+00  0.00000000E+00  0.00000000E+00
  0.00000000E+00  0.00000000E+00  0.00000000E+00
  0.00000000E+00  0.00000000E+00  0.00000000E+00
  0.00000000E+00  0.00000000E+00  0.00000000E+00
  0.00000000E+00  0.00000000E+00  0.00000000E+00
  0.00000000E+00  0.00000000E+00  0.00000000E+00
  0.00000000E+00  0.00000000E+00  0.00000000E+00
  0.00000000E+00  0.00000000E+00  0.00000000E+00
  0.00000000E+00  0.00000000E+00  0.00000000E+00
  0.00000000E+00  0.00000000E+00  0.00000000E+00
  0.00000000E+00  0.00000000E+00  0.00000000E+00
  0.00000000E+00  0.00000000E+00  0.00000000E+00
  0.00000000E+00  0.00000000E+00  0.00000000E+00
  0.00000000E+00  0.00000000E+00  0.00000000E+00
  0.00000000E+00  0.00000000E+00  0.00000000E+00
  0.00000000E+00  0.00000000E+00  0.00000000E+00
  0.00000000E+00  0.00000000E+00  0.00000000E+00
  0.00000000E+00  0.00000000E+00  0.00000000E+00
  0.00000000E+00  0.00000000E+00  0.00000000E+00
  0.00000000E+00  0.00000000E+00  0.00000000E+00
  0.00000000E+00  0.00000000E+00  0.00000000E+00
  0.00000000E+00  0.00000000E+00  0.00000000E+00
  0.00000000E+00  0.00000000E+00  0.00000000E+00
  0.00000000E+00  0.00000000E+00  0.00000000E+00
  0.00000000E+00  0.00000000E+00  0.00000000E+00
  0.00000000E+00  0.00000000E+00  0.00000000E+00
  0.00000000E+00  0.00000000E+00  0.00000000E+00
  0.00000000E+00  0.00000000E+00  0.00000000E+00
  0.00000000E+00  0.00000000E+00  0.00000000E+00
  0.00000000E+00  0.00000000E+00  0.00000000E+00
  0.00000000E+00  0.00000000E+00  0.00000000E+00
  0.00000000E+00  0.00000000E+00  0.00000000E+00
  0.00000000E+00  0.00000000E+00  0.00000000E+00
  0.00000000E+00  0.00000000E+00  0.00000000E+00
  0.00000000E+00  0.00000000E+00  0.00000000E+00
  0.00000000E+00  0.00000000E+00  0.00000000E+00
  0.00000000E+00  0.00000000E+00  0.00000000E+00
  0.00000000E+00  0.00000000E+00  0.00000000E+00
  0.00000000E+00  0.00000000E+00  0.00000000E+00
  0.00000000E+00  0.00000000E+00  0.00000000E+00
