Ba Sr Ti  O                             
   1.00000000000000     
     8.0414886140419224    0.0000000000000000    0.0000000000000000
     0.0000000000000000    7.8099999999999996    0.0000000000000000
     0.0000000000000000    0.0000000000000000    7.8099999999999996
   Ba   Sr   Ti   O 
     4     4     8    24
Direct
  0.9945322392428598  0.0148548372310027  0.0471390456864484
  0.9945602061257731  0.5148769818902303  0.5471628241530416
  0.4945415814785528  0.5148765281360277  0.0471320731022989
  0.4945379609725306  0.0148484859565261  0.5471585654589748
  0.4898291602560241  0.0148615575923197  0.0470683005507478
  0.9898602712554112  0.5147409631266865  0.0471095831232179
  0.9898731650232280  0.0148820131819262  0.5469554029920940
  0.4899548642838320  0.5147561164176075  0.5469788095295282
  0.7385205150328765  0.2648047384743690  0.2970675790664167
  0.2385395115215136  0.2648163070934063  0.2970705802957903
  0.7385202279859362  0.7648666861746649  0.2970677303870558
  0.2385316945867464  0.7648661006216404  0.2970769847602570
  0.7385153629702720  0.2648048604801477  0.7971089949833815
  0.2385229642825485  0.2648205318923000  0.7971096908540306
  0.7385181123275830  0.7648722982901589  0.7971160726897231
  0.2385150562758124  0.7648631069292698  0.7971099180184023
  0.0037230113515648  0.2648396318847047  0.2971266380528946
  0.5037348470537909  0.2648769788281937  0.2972379287160125
  0.0037489124946314  0.7649156791672909  0.2972078378106989
  0.5037680412007908  0.7648820025536089  0.2971435172839285
  0.0037475660031855  0.2649012047114459  0.7972975624200994
  0.5037639924304278  0.2648034649242122  0.7971907779285078
  0.0037740481271290  0.7648543570128303  0.7972250861926307
  0.5037974302983304  0.7649549282554657  0.7972865511231718
  0.7528406629991538  0.0148732364984919  0.2982315053586935
  0.2528118760107627  0.0148925292546686  0.2962363344124281
  0.7528348180806349  0.5148660195821605  0.2962085196272983
  0.2528179847364602  0.5148888156601861  0.2982001413179226
  0.7528814575203775  0.0148729178387157  0.7962315027791023
  0.2528453563881422  0.0148940982146259  0.7982988352936397
  0.7528482786886582  0.5148697543368245  0.7983148621485376
  0.2528634328949954  0.5148910673464673  0.7962800350616716
  0.7527166070368697  0.2656396868826697  0.0472288480286027
  0.2528300786802183  0.2639957899992931  0.0472306141674604
  0.7528414373774951  0.7640331941034918  0.0472295359860320
  0.2528104167366709  0.7658205026171606  0.0472342244069836
  0.7528359386976284  0.2640047003240535  0.5472196451492808
  0.2527200128236090  0.2656982056764577  0.5472250087302329
  0.7527825828207102  0.7657325535807175  0.5472249495990259
  0.2528232968720742  0.7640488490115369  0.5472295793389906
 
  0.00000000E+00  0.00000000E+00  0.00000000E+00
  0.00000000E+00  0.00000000E+00  0.00000000E+00
  0.00000000E+00  0.00000000E+00  0.00000000E+00
  0.00000000E+00  0.00000000E+00  0.00000000E+00
  0.00000000E+00  0.00000000E+00  0.00000000E+00
  0.00000000E+00  0.00000000E+00  0.00000000E+00
  0.00000000E+00  0.00000000E+00  0.00000000E+00
  0.00000000E+00  0.00000000E+00  0.00000000E+00
  0.00000000E+00  0.00000000E+00  0.00000000E+00
  0.00000000E+00  0.00000000E+00  0.00000000E+00
  0.00000000E+00  0.00000000E+00  0.00000000E+00
  0.00000000E+00  0.00000000E+00  0.00000000E+00
  0.00000000E+00  0.00000000E+00  0.00000000E+00
  0.00000000E+00  0.00000000E+00  0.00000000E+00
  0.00000000E+00  0.00000000E+00  0.00000000E+00
  0.00000000E+00  0.00000000E+00  0.00000000E+00
  0.00000000E+00  0.00000000E+00  0.00000000E+00
  0.00000000E+00  0.00000000E+00  0.00000000E+00
  0.00000000E+00  0.00000000E+00  0.00000000E+00
  0.00000000E+00  0.00000000E+00  0.00000000E+00
  0.00000000E+00  0.00000000E+00  0.00000000E+00
  0.00000000E+00  0.00000000E+00  0.00000000E+00
  0.00000000E+00  0.00000000E+00  0.00000000E+00
  0.00000000E+00  0.00000000E+00  0.00000000E+00
  0.00000000E+00  0.00000000E+00  0.00000000E+00
  0.00000000E+00  0.00000000E+00  0.00000000E+00
  0.00000000E+00  0.00000000E+00  0.00000000E+00
  0.00000000E+00  0.00000000E+00  0.00000000E+00
  0.00000000E+00  0.00000000E+00  0.00000000E+00
  0.00000000E+00  0.00000000E+00  0.00000000E+00
  0.00000000E+00  0.00000000E+00  0.00000000E+00
  0.00000000E+00  0.00000000E+00  0.00000000E+00
  0.00000000E+00  0.00000000E+00  0.00000000E+00
  0.00000000E+00  0.00000000E+00  0.00000000E+00
  0.00000000E+00  0.00000000E+00  0.00000000E+00
  0.00000000E+00  0.00000000E+00  0.00000000E+00
  0.00000000E+00  0.00000000E+00  0.00000000E+00
  0.00000000E+00  0.00000000E+00  0.00000000E+00
  0.00000000E+00  0.00000000E+00  0.00000000E+00
  0.00000000E+00  0.00000000E+00  0.00000000E+00
