Ba Sr Ti  O 
 1.0000000000000000
     7.8158740000000000    0.0000000000000000    0.0000000000000000
     0.0000000000000000    7.8158680000000000    0.0000000000000000
     0.0000000000000000    0.0000000000000000    7.9696749999999996
 Ba  Sr  Ti  O  
   4   4   8  24
Cartesian
  8.2405773383014402  7.8427770956198390  0.1335723108772500
  4.2062778988351006  3.9178511641117999  0.1194446273982500
  0.5856238991349999  3.8680321180516799  4.1809134216062498
  4.3140088578602400  7.6384608488995598  4.0667386621049992
  7.9458213463939202  7.8425753680667603  4.1550889649167502
  8.3635919262986196  4.0006336334619199  8.2132870045047497
  4.3921351619831404  7.8087554038026408  0.3203598153612500
  4.3921576717002608  3.8398340294812798  3.9582779204884999
  2.3647423876586400  1.7784886488046001  2.0416554021500000
  2.4953998062054601  2.0393560613281201  6.0508504604590003
  2.3035472987469801  5.8253396200348799  2.1746907163257503
  2.4506089862799598  5.9607375748568394  6.0583182053274998
  6.2470944367546002  1.9219610205400002  2.0689602259707498
  6.3001279555592395  1.8493067437376800  6.0730320584027497
  6.2369232491247004  5.9016339810408400  2.0513399121197500
  6.4395072642201399  5.6607601841307593  6.0596400556229995
  2.2214352896777800  1.9147155545866401  8.0797503180747494
  2.2432481434719400  1.8462962277014401  4.1680819260692497
  2.2129500642284201  5.8629333980041203  0.1069778241892500
  2.4814457355595603  5.8297845823251597  4.1221637668925002
  6.0261374121711402  1.9022648768626400  0.2664520569970000
  6.4890414599174999  1.8872192528039600  4.1273304274982499
  6.3780107170482996  5.8976514055014402  8.1693328123382507
  6.3098080718257199  5.7857497475371202  4.1924055335627495
  2.1220240158906800  7.7846793258567599  2.3565267414289996
  2.6290824369427201 -0.1121049486910000  6.2755385513729998
  2.6062313224464000  3.7558253286006398  2.1959095775295001
  2.2449310574616201  3.8888506203738400  6.1749372641512501
  6.4771765723917998 -0.0063838446650400  2.1691883730089998
  6.1463182768908808  7.7890244795126806  6.2388001826482489
  6.2925555460343396  3.8847819921277602  2.1638596889104997
  6.4770634766950197  3.7030314850210400  6.3683381643437498
  8.2759744155838195  2.0380066517179198  1.9038045712489999
  0.3872538906653999  1.7464940805118800  5.9592031030997497
  0.4560590616146400  5.7582923687770800  2.1947631397807501
  8.2055011808055003  6.0505976253156799  6.0096709903405001
  4.3456925352464797  1.7767285934896799  2.2946385490034995
  4.3486499056505998  2.0749970446775601  5.9715508393642489
  4.2287554145542199  6.0423565740964804  1.8673256154455000
  4.4075017173783193  5.6283040106739604  6.1053883013287500
