This file is generated by VASPKIT code  
   1.00000000000000     
     8.0196469630718141    0.0000000000000000    0.0000000000000000
     0.0000000000000000    7.8158677962651790    0.0000000000000000
     0.0000000000000000    0.0000000000000000    7.8159558102579014
   Ba   Sr   Ti   O 
     4     4     8    24
Direct
  0.0031281120334140  0.0000144728122777 -0.0000130933557873
  0.5031269914957291  0.0000175283278781  0.0000203996702180
  0.5031269306411338  0.4999824741568609  0.0000204061844266
  0.0031281716533194  0.4999855240384631 -0.0000130930823327
  0.0064255552072092  0.0000336776911590  0.5000129096643779
  0.0064255947145855  0.4999663223161914  0.5000129716960362
  0.5063987954823872  0.0000375774930334  0.4999516925833403
  0.5063987523366132  0.4999624271585285  0.4999517810111079
  0.2607431322848172  0.2499999967463772  0.2545920609400075
  0.2607431322848172  0.2499999879345552  0.7453924728672263
  0.2607431322848172  0.7499999980123701  0.2546189740289785
  0.2607431322848172  0.7500000181174695  0.7454094748692521
  0.7606525957764089  0.2500000153611116  0.2546177096907754
  0.7606525957764089  0.2500000024968152  0.7454007218816860
  0.7606525957764089  0.7499999825417212  0.2546326711375898
  0.7606525957764089  0.7499999992657445  0.7454101044224578
  0.2477018207053252  0.2500000426037204 -0.0000240259230065
  0.2437331678860387  0.2500000033375351  0.4999881465831398
  0.2478557148746347  0.7499999656961964 -0.0000300940050654
  0.2437453509246748  0.7500000055289315  0.4999973054997954
  0.7477269939077160  0.2499999492085718  0.0000366806923894
  0.7436503151519033  0.2500000464941495  0.4999955401661911
  0.7478760762160321  0.7500000582139302  0.0000078355805295
  0.7436628867562053  0.7499999615937060  0.4999973341789478
  0.2461979546016196 -0.0000006196346035  0.2578223449217911
  0.2462231539540260  0.0000173451543320  0.7421918541666349
  0.2461979624542112  0.5000006023572995  0.2578223899570669
  0.2462231595192419  0.4999826319351797  0.7421918102326396
  0.7462375959775780  0.0000006908632017  0.2578121983442431
  0.7462083957951077  0.0000024627098545  0.7421745263357963
  0.7462375892595415  0.4999992876528416  0.2578120850808934
  0.7462083960430801  0.4999975182801912  0.7421746457984355
 -0.0049340970381569  0.2499999972919167  0.2598021931128344
 -0.0049860945607719  0.2500000068978376  0.7402212263895789
 -0.0048835270301109  0.7500000136813999  0.2597727587682330
 -0.0049161559895658  0.7499999993299825  0.7402206836678933
  0.4950503632659055  0.2499999949352176  0.2597275602615080
  0.4950882468057825  0.2500000118567012  0.7402872710219179
  0.4951199389465404  0.7500000196147082  0.2596997669242901
  0.4951042597022522  0.7499999999266498  0.7402797980339764
 
  0.00000000E+00  0.00000000E+00  0.00000000E+00
  0.00000000E+00  0.00000000E+00  0.00000000E+00
  0.00000000E+00  0.00000000E+00  0.00000000E+00
  0.00000000E+00  0.00000000E+00  0.00000000E+00
  0.00000000E+00  0.00000000E+00  0.00000000E+00
  0.00000000E+00  0.00000000E+00  0.00000000E+00
  0.00000000E+00  0.00000000E+00  0.00000000E+00
  0.00000000E+00  0.00000000E+00  0.00000000E+00
  0.00000000E+00  0.00000000E+00  0.00000000E+00
  0.00000000E+00  0.00000000E+00  0.00000000E+00
  0.00000000E+00  0.00000000E+00  0.00000000E+00
  0.00000000E+00  0.00000000E+00  0.00000000E+00
  0.00000000E+00  0.00000000E+00  0.00000000E+00
  0.00000000E+00  0.00000000E+00  0.00000000E+00
  0.00000000E+00  0.00000000E+00  0.00000000E+00
  0.00000000E+00  0.00000000E+00  0.00000000E+00
  0.00000000E+00  0.00000000E+00  0.00000000E+00
  0.00000000E+00  0.00000000E+00  0.00000000E+00
  0.00000000E+00  0.00000000E+00  0.00000000E+00
  0.00000000E+00  0.00000000E+00  0.00000000E+00
  0.00000000E+00  0.00000000E+00  0.00000000E+00
  0.00000000E+00  0.00000000E+00  0.00000000E+00
  0.00000000E+00  0.00000000E+00  0.00000000E+00
  0.00000000E+00  0.00000000E+00  0.00000000E+00
  0.00000000E+00  0.00000000E+00  0.00000000E+00
  0.00000000E+00  0.00000000E+00  0.00000000E+00
  0.00000000E+00  0.00000000E+00  0.00000000E+00
  0.00000000E+00  0.00000000E+00  0.00000000E+00
  0.00000000E+00  0.00000000E+00  0.00000000E+00
  0.00000000E+00  0.00000000E+00  0.00000000E+00
  0.00000000E+00  0.00000000E+00  0.00000000E+00
  0.00000000E+00  0.00000000E+00  0.00000000E+00
  0.00000000E+00  0.00000000E+00  0.00000000E+00
  0.00000000E+00  0.00000000E+00  0.00000000E+00
  0.00000000E+00  0.00000000E+00  0.00000000E+00
  0.00000000E+00  0.00000000E+00  0.00000000E+00
  0.00000000E+00  0.00000000E+00  0.00000000E+00
  0.00000000E+00  0.00000000E+00  0.00000000E+00
  0.00000000E+00  0.00000000E+00  0.00000000E+00
  0.00000000E+00  0.00000000E+00  0.00000000E+00
