Ba Sr Ti  O                             
   1.00000000000000     
     8.0175525489787027    0.0000000000000000    0.0000000000000000
     0.0000000000000000    7.8264421052631583    0.0000000000000000
     0.0000000000000000    0.0000000000000000    7.8264421052631583
   Ba   Sr   Ti   O 
     4     4     8    24
Direct
  0.9949395828502398  0.0148480851559380  0.0471353933907577
  0.9949404015592462  0.5148687882983231  0.5471566019897136
  0.4949405301098775  0.5148708056205290  0.0471312435929634
  0.4949368808937503  0.0148451630184630  0.5471538501414347
  0.4907933893621321  0.0148246550417122  0.0470438968197478
  0.9908211046865804  0.5147561597723783  0.0470827567106700
  0.9908326300087628  0.0148451729081519  0.5469826680347615
  0.4908993252048684  0.5147673465447977  0.5470015677063426
  0.7394148907488853  0.2648151634206027  0.2970676043976931
  0.2394206423711818  0.2648193980683462  0.2970607079160705
  0.7394142267218773  0.7648355640600782  0.2970639803818644
  0.2394140252058370  0.7648397075465190  0.2970613940844355
  0.7394055713319782  0.2648128257355754  0.7970871270039354
  0.2394064301552374  0.2648198225752906  0.7970992285134114
  0.7394079474322238  0.7648472297632251  0.7971012213938296
  0.2394011094776506  0.7648424174799623  0.7971068813027093
  0.0031636922662817  0.2648505229817240  0.2971396056351250
  0.5031644417569948  0.2648890986797868  0.2972543004728045
  0.0031882419104723  0.7649272964069345  0.2972269758896207
  0.5031937074746444  0.7648913831077826  0.2971529426344437
  0.0031840642340723  0.2649138866725469  0.7973069760055290
  0.5031911300890591  0.2648132203634770  0.7971953189952569
  0.0032094620843220  0.7648600718099724  0.7972219351895067
  0.5032205236110713  0.7649595212492059  0.7972894973119831
  0.7523414853920718  0.0148828918425209  0.2981228355419768
  0.2523143705410940  0.0149008367648807  0.2963392333651155
  0.7523252894929946  0.5148666967690185  0.2963210072474490
  0.2523116416294572  0.5148873930455192  0.2981044381014527
  0.7523878591134868  0.0148845374261743  0.7963474249443203
  0.2523472074798436  0.0149035105709985  0.7981834789115010
  0.7523410455380112  0.5148674761021657  0.7981961218760446
  0.2523628272825675  0.5148876545041291  0.7963810637275605
  0.7522302246036598  0.2655719360929498  0.0472368720303663
  0.2523329317240088  0.2640899923866340  0.0472398838797194
  0.7523574028879256  0.7641240873055997  0.0472393099048010
  0.2523132834654553  0.7657245689985126  0.0472437176819963
  0.7523352120795744  0.2640840532431341  0.5472210705335038
  0.2522172480869584  0.2656182581567381  0.5472236761163021
  0.7522856276281722  0.7656595852210468  0.5472228804339431
  0.2523273724532913  0.7641454970422126  0.5472255067745926
 
  0.00000000E+00  0.00000000E+00  0.00000000E+00
  0.00000000E+00  0.00000000E+00  0.00000000E+00
  0.00000000E+00  0.00000000E+00  0.00000000E+00
  0.00000000E+00  0.00000000E+00  0.00000000E+00
  0.00000000E+00  0.00000000E+00  0.00000000E+00
  0.00000000E+00  0.00000000E+00  0.00000000E+00
  0.00000000E+00  0.00000000E+00  0.00000000E+00
  0.00000000E+00  0.00000000E+00  0.00000000E+00
  0.00000000E+00  0.00000000E+00  0.00000000E+00
  0.00000000E+00  0.00000000E+00  0.00000000E+00
  0.00000000E+00  0.00000000E+00  0.00000000E+00
  0.00000000E+00  0.00000000E+00  0.00000000E+00
  0.00000000E+00  0.00000000E+00  0.00000000E+00
  0.00000000E+00  0.00000000E+00  0.00000000E+00
  0.00000000E+00  0.00000000E+00  0.00000000E+00
  0.00000000E+00  0.00000000E+00  0.00000000E+00
  0.00000000E+00  0.00000000E+00  0.00000000E+00
  0.00000000E+00  0.00000000E+00  0.00000000E+00
  0.00000000E+00  0.00000000E+00  0.00000000E+00
  0.00000000E+00  0.00000000E+00  0.00000000E+00
  0.00000000E+00  0.00000000E+00  0.00000000E+00
  0.00000000E+00  0.00000000E+00  0.00000000E+00
  0.00000000E+00  0.00000000E+00  0.00000000E+00
  0.00000000E+00  0.00000000E+00  0.00000000E+00
  0.00000000E+00  0.00000000E+00  0.00000000E+00
  0.00000000E+00  0.00000000E+00  0.00000000E+00
  0.00000000E+00  0.00000000E+00  0.00000000E+00
  0.00000000E+00  0.00000000E+00  0.00000000E+00
  0.00000000E+00  0.00000000E+00  0.00000000E+00
  0.00000000E+00  0.00000000E+00  0.00000000E+00
  0.00000000E+00  0.00000000E+00  0.00000000E+00
  0.00000000E+00  0.00000000E+00  0.00000000E+00
  0.00000000E+00  0.00000000E+00  0.00000000E+00
  0.00000000E+00  0.00000000E+00  0.00000000E+00
  0.00000000E+00  0.00000000E+00  0.00000000E+00
  0.00000000E+00  0.00000000E+00  0.00000000E+00
  0.00000000E+00  0.00000000E+00  0.00000000E+00
  0.00000000E+00  0.00000000E+00  0.00000000E+00
  0.00000000E+00  0.00000000E+00  0.00000000E+00
  0.00000000E+00  0.00000000E+00  0.00000000E+00
