Ba Sr Ti  O                             
   1.00000000000000     
     8.0084414618628710    0.0000000000000000    0.0000000000000000
     0.0000000000000000    7.8346631578947354    0.0000000000000000
     0.0000000000000000    0.0000000000000000    7.8346631578947354
   Ba   Sr   Ti   O 
     4     4     8    24
Direct
  0.9950202390566459  0.0148603962711133  0.0471414929354289
  0.9950201372327619  0.5148631981838450  0.5471459631686544
  0.4950230022009092  0.5148645313018800  0.0471380878169924
  0.4950163925033546  0.0148582443939818  0.5471412357090195
  0.4909750916026273  0.0148201340725615  0.0470244402655622
  0.9909982308069658  0.5147099656085007  0.0470735129628023
  0.9910165727247752  0.0148485965363960  0.5469228528649260
  0.4910870224278541  0.5147221451375166  0.5469442849516196
  0.7396982560336031  0.2647827026764950  0.2970238217760458
  0.2397071635168078  0.2647908785501485  0.2970223807956053
  0.7397065912977647  0.7648175067362151  0.2970322739979683
  0.2397081095299449  0.7648181933344830  0.2970346993753213
  0.7396973043905168  0.2647904132609795  0.7970492649788792
  0.2396962002102536  0.2648009712915694  0.7970585765970117
  0.7397086426978869  0.7648370619245490  0.7970698711000022
  0.2397007832478777  0.7648254578976553  0.7970739259978165
  0.0029813819703580  0.2648657744092401  0.2971567852688258
  0.5029881305973607  0.2649071870041134  0.2972811050095555
  0.0030168169048923  0.7649240259427531  0.2972308818381556
  0.5030283907651401  0.7648876231116135  0.2971796285257866
  0.0030141051177185  0.2649464974236571  0.7973260859156986
  0.5030236751000893  0.2648042552714271  0.7972072893460292
  0.0030489516782368  0.7648371975794258  0.7972510762357936
  0.5030638106713324  0.7649762507179937  0.7972927000440501
  0.7522157073664517  0.0149016706602459  0.2981076627781816
  0.2521786905009930  0.0149232913544279  0.2963879242118741
  0.7521817849525786  0.5148695474293199  0.2963895988168417
  0.2521885946511671  0.5148952778006851  0.2981079233568804
  0.7522720217075367  0.0148998808427646  0.7963904150708963
  0.2522071164816380  0.0149225585018362  0.7981792947750269
  0.7521891858128074  0.5148683816337785  0.7981705595184359
  0.2522510729422222  0.5148939135643549  0.7964056526163183
  0.7521078018321317  0.2655841292547231  0.0472659442543862
  0.2522036207458404  0.2641294430174951  0.0472671515103961
  0.7522292080324876  0.7641242167949859  0.0472639770268629
  0.2522061027424286  0.7657280232104459  0.0472677573281158
  0.7522088363288326  0.2641013644388834  0.5472346710367424
  0.2520867883911967  0.2656185202892756  0.5472387539618158
  0.7521757444871020  0.7656708001282241  0.5472340608990505
  0.2521877016847208  0.7641720541939978  0.5472386119458795
 
  0.00000000E+00  0.00000000E+00  0.00000000E+00
  0.00000000E+00  0.00000000E+00  0.00000000E+00
  0.00000000E+00  0.00000000E+00  0.00000000E+00
  0.00000000E+00  0.00000000E+00  0.00000000E+00
  0.00000000E+00  0.00000000E+00  0.00000000E+00
  0.00000000E+00  0.00000000E+00  0.00000000E+00
  0.00000000E+00  0.00000000E+00  0.00000000E+00
  0.00000000E+00  0.00000000E+00  0.00000000E+00
  0.00000000E+00  0.00000000E+00  0.00000000E+00
  0.00000000E+00  0.00000000E+00  0.00000000E+00
  0.00000000E+00  0.00000000E+00  0.00000000E+00
  0.00000000E+00  0.00000000E+00  0.00000000E+00
  0.00000000E+00  0.00000000E+00  0.00000000E+00
  0.00000000E+00  0.00000000E+00  0.00000000E+00
  0.00000000E+00  0.00000000E+00  0.00000000E+00
  0.00000000E+00  0.00000000E+00  0.00000000E+00
  0.00000000E+00  0.00000000E+00  0.00000000E+00
  0.00000000E+00  0.00000000E+00  0.00000000E+00
  0.00000000E+00  0.00000000E+00  0.00000000E+00
  0.00000000E+00  0.00000000E+00  0.00000000E+00
  0.00000000E+00  0.00000000E+00  0.00000000E+00
  0.00000000E+00  0.00000000E+00  0.00000000E+00
  0.00000000E+00  0.00000000E+00  0.00000000E+00
  0.00000000E+00  0.00000000E+00  0.00000000E+00
  0.00000000E+00  0.00000000E+00  0.00000000E+00
  0.00000000E+00  0.00000000E+00  0.00000000E+00
  0.00000000E+00  0.00000000E+00  0.00000000E+00
  0.00000000E+00  0.00000000E+00  0.00000000E+00
  0.00000000E+00  0.00000000E+00  0.00000000E+00
  0.00000000E+00  0.00000000E+00  0.00000000E+00
  0.00000000E+00  0.00000000E+00  0.00000000E+00
  0.00000000E+00  0.00000000E+00  0.00000000E+00
  0.00000000E+00  0.00000000E+00  0.00000000E+00
  0.00000000E+00  0.00000000E+00  0.00000000E+00
  0.00000000E+00  0.00000000E+00  0.00000000E+00
  0.00000000E+00  0.00000000E+00  0.00000000E+00
  0.00000000E+00  0.00000000E+00  0.00000000E+00
  0.00000000E+00  0.00000000E+00  0.00000000E+00
  0.00000000E+00  0.00000000E+00  0.00000000E+00
  0.00000000E+00  0.00000000E+00  0.00000000E+00
