Ba Sr Ti  O                             
   1.00000000000000     
     7.9730146376741295    0.0000000000000000    0.0000000000000000
     0.0000000000000000    7.8593263157894739    0.0000000000000000
     0.0000000000000000    0.0000000000000000    7.8593263157894739
   Ba   Sr   Ti   O 
     4     4     8    24
Direct
  0.9957033740225004  0.0148699118686627  0.0471665635243816
  0.9956537565719856  0.5148570532425722  0.5471545772241408
  0.4956783022909440  0.5148601287074249  0.0471782496065545
  0.4956686684005926  0.0148819704377891  0.5471486648163076
  0.4925634850569459  0.0148035878461879  0.0470591827127121
  0.9925787956845430  0.5147936776862414  0.0470934495931059
  0.9925956179344405  0.0148241188876655  0.5470586278807953
  0.4926110835743625  0.5147998484326458  0.5470686161250752
  0.7413097518451396  0.2648190472133793  0.2970846510803782
  0.2412970515681756  0.2648258540789392  0.2970849291600805
  0.7413287415311890  0.7648113734987807  0.2970994741415340
  0.2413137868671371  0.7648060915770265  0.2971025010270378
  0.7413190167613910  0.2648341976708827  0.7970725638142663
  0.2412986769394093  0.2648388769594556  0.7970809857555492
  0.7413461061127328  0.7648337506810706  0.7970983379086765
  0.2413240089324586  0.7648185908841795  0.7971000351968935
  0.0019800886684845  0.2649056249856608  0.2971768147198187
  0.5019991289663472  0.2649223615413908  0.2972885308856358
  0.0020111665589061  0.7648875841619752  0.2972355721417847
  0.5020312052037537  0.7648647637281357  0.2971910196322257
  0.0020043166527133  0.2649513659649925  0.7972763521949222
  0.5020197955252677  0.2648461606176147  0.7971610738121272
  0.0020356318637264  0.7648211203981832  0.7971985086830796
  0.5020518989413614  0.7649150904881540  0.7972252373939616
  0.7513442579394560  0.0148873240863695  0.2979024035615983
  0.2513324470194274  0.0149064919798141  0.2965383633469761
  0.7513013541436816  0.5148816722211312  0.2965524234966053
  0.2513123309880726  0.5149009378884990  0.2979158133402226
  0.7514272729152909  0.0148808319097310  0.7965062121291302
  0.2513455489225525  0.0149003015321144  0.7979104362246203
  0.7513008570411063  0.5148746228346305  0.7979002197018802
  0.2513974859448120  0.5148944331011330  0.7965061004018883
  0.7512574710495793  0.2654541742172628  0.0472359792530048
  0.2513556406347546  0.2642859961212663  0.0472355142504451
  0.7513958968494863  0.7642303944819506  0.0472276976920501
  0.2513430929175099  0.7654984837952936  0.0472290473749105
  0.7513347393217366  0.2642439969354488  0.5472300653422080
  0.2512205079262627  0.2654746541456562  0.5472315631939062
  0.7512992290364803  0.7654757682875581  0.5472214397456819
  0.2513433918211015  0.7642800466566884  0.5472243984990830
 
  0.00000000E+00  0.00000000E+00  0.00000000E+00
  0.00000000E+00  0.00000000E+00  0.00000000E+00
  0.00000000E+00  0.00000000E+00  0.00000000E+00
  0.00000000E+00  0.00000000E+00  0.00000000E+00
  0.00000000E+00  0.00000000E+00  0.00000000E+00
  0.00000000E+00  0.00000000E+00  0.00000000E+00
  0.00000000E+00  0.00000000E+00  0.00000000E+00
  0.00000000E+00  0.00000000E+00  0.00000000E+00
  0.00000000E+00  0.00000000E+00  0.00000000E+00
  0.00000000E+00  0.00000000E+00  0.00000000E+00
  0.00000000E+00  0.00000000E+00  0.00000000E+00
  0.00000000E+00  0.00000000E+00  0.00000000E+00
  0.00000000E+00  0.00000000E+00  0.00000000E+00
  0.00000000E+00  0.00000000E+00  0.00000000E+00
  0.00000000E+00  0.00000000E+00  0.00000000E+00
  0.00000000E+00  0.00000000E+00  0.00000000E+00
  0.00000000E+00  0.00000000E+00  0.00000000E+00
  0.00000000E+00  0.00000000E+00  0.00000000E+00
  0.00000000E+00  0.00000000E+00  0.00000000E+00
  0.00000000E+00  0.00000000E+00  0.00000000E+00
  0.00000000E+00  0.00000000E+00  0.00000000E+00
  0.00000000E+00  0.00000000E+00  0.00000000E+00
  0.00000000E+00  0.00000000E+00  0.00000000E+00
  0.00000000E+00  0.00000000E+00  0.00000000E+00
  0.00000000E+00  0.00000000E+00  0.00000000E+00
  0.00000000E+00  0.00000000E+00  0.00000000E+00
  0.00000000E+00  0.00000000E+00  0.00000000E+00
  0.00000000E+00  0.00000000E+00  0.00000000E+00
  0.00000000E+00  0.00000000E+00  0.00000000E+00
  0.00000000E+00  0.00000000E+00  0.00000000E+00
  0.00000000E+00  0.00000000E+00  0.00000000E+00
  0.00000000E+00  0.00000000E+00  0.00000000E+00
  0.00000000E+00  0.00000000E+00  0.00000000E+00
  0.00000000E+00  0.00000000E+00  0.00000000E+00
  0.00000000E+00  0.00000000E+00  0.00000000E+00
  0.00000000E+00  0.00000000E+00  0.00000000E+00
  0.00000000E+00  0.00000000E+00  0.00000000E+00
  0.00000000E+00  0.00000000E+00  0.00000000E+00
  0.00000000E+00  0.00000000E+00  0.00000000E+00
  0.00000000E+00  0.00000000E+00  0.00000000E+00
