Ba Sr Ti  O                             
   1.00000000000000     
     8.0349794801191763    0.0000000000000000    0.0000000000000000
     0.0000000000000000    7.8141105263157895    0.0000000000000000
     0.0000000000000000    0.0000000000000000    7.8141105263157895
   Ba   Sr   Ti   O 
     4     4     8    24
Direct
  0.9946612573448198  0.0148351685493544  0.0471189993984938
  0.9946871175978554  0.5148823965682253  0.5471669601089922
  0.4946644813983638  0.5148821210959436  0.0471162622497630
  0.4946611033177654  0.0148317865587228  0.5471614901326366
  0.4900635362446314  0.0148687765349478  0.0470757681694312
  0.9900945666806861  0.5147357616803470  0.0471184615480014
  0.9901099860229372  0.0148910805388829  0.5469489835653041
  0.4901919035184700  0.5147516480898719  0.5469730560152699
  0.7387579048687989  0.2648080133083711  0.2970662253477045
  0.2387758950098186  0.2648184558023752  0.2970673477203973
  0.7387645794662004  0.7648438623932140  0.2970682616052897
  0.2387755206967862  0.7648447345473351  0.2970760023219868
  0.7387629930721641  0.2648101563572320  0.7970844738607132
  0.2387651789585060  0.2648241179837440  0.7970883641327207
  0.7387721568190908  0.7648532702557124  0.7970953444494814
  0.2387657027379043  0.7648444706011643  0.7970931796844213
  0.0035719672983068  0.2648552919615039  0.2971438141299673
  0.5035849004984981  0.2648981092634707  0.2972619808632220
  0.0035944864408003  0.7648982909938344  0.2972227119803376
  0.5036128337946097  0.7648586542029023  0.2971664207315873
  0.0035886230486162  0.2649200718008630  0.7972835724789789
  0.5036036544023030  0.2648184520852861  0.7971698478804617
  0.0036134578653110  0.7648314844820499  0.7972118440533225
  0.5036338068841120  0.7649355276642771  0.7972642535068782
  0.7527033276562421  0.0148876201606214  0.2982253672560535
  0.2526754565499726  0.0149070712921801  0.2962821583609060
  0.7526926794986086  0.5148743571318919  0.2962581598226883
  0.2526902068624619  0.5148970263238833  0.2981958300443953
  0.7527473999978225  0.0148876693727634  0.7962399883188629
  0.2527073260284132  0.0149083353847960  0.7982544119693824
  0.7527048857893031  0.5148774110691677  0.7982637191560534
  0.2527388284139926  0.5148989935876972  0.7962824679348096
  0.7525826660019636  0.2656461525521321  0.0472451139489178
  0.2526973269530537  0.2640361659187252  0.0472456549817650
  0.7527048389325777  0.7640296060262788  0.0472464760280683
  0.2526783999219649  0.7657811535619002  0.0472487218789135
  0.7526993225393231  0.2640385271571041  0.5472297237276752
  0.2525933897290911  0.2656969833654526  0.5472364574914820
  0.7526484646880087  0.7656977703667458  0.5472338571363866
  0.2526928473956643  0.7640557351625855  0.5472404625935398
 
  0.00000000E+00  0.00000000E+00  0.00000000E+00
  0.00000000E+00  0.00000000E+00  0.00000000E+00
  0.00000000E+00  0.00000000E+00  0.00000000E+00
  0.00000000E+00  0.00000000E+00  0.00000000E+00
  0.00000000E+00  0.00000000E+00  0.00000000E+00
  0.00000000E+00  0.00000000E+00  0.00000000E+00
  0.00000000E+00  0.00000000E+00  0.00000000E+00
  0.00000000E+00  0.00000000E+00  0.00000000E+00
  0.00000000E+00  0.00000000E+00  0.00000000E+00
  0.00000000E+00  0.00000000E+00  0.00000000E+00
  0.00000000E+00  0.00000000E+00  0.00000000E+00
  0.00000000E+00  0.00000000E+00  0.00000000E+00
  0.00000000E+00  0.00000000E+00  0.00000000E+00
  0.00000000E+00  0.00000000E+00  0.00000000E+00
  0.00000000E+00  0.00000000E+00  0.00000000E+00
  0.00000000E+00  0.00000000E+00  0.00000000E+00
  0.00000000E+00  0.00000000E+00  0.00000000E+00
  0.00000000E+00  0.00000000E+00  0.00000000E+00
  0.00000000E+00  0.00000000E+00  0.00000000E+00
  0.00000000E+00  0.00000000E+00  0.00000000E+00
  0.00000000E+00  0.00000000E+00  0.00000000E+00
  0.00000000E+00  0.00000000E+00  0.00000000E+00
  0.00000000E+00  0.00000000E+00  0.00000000E+00
  0.00000000E+00  0.00000000E+00  0.00000000E+00
  0.00000000E+00  0.00000000E+00  0.00000000E+00
  0.00000000E+00  0.00000000E+00  0.00000000E+00
  0.00000000E+00  0.00000000E+00  0.00000000E+00
  0.00000000E+00  0.00000000E+00  0.00000000E+00
  0.00000000E+00  0.00000000E+00  0.00000000E+00
  0.00000000E+00  0.00000000E+00  0.00000000E+00
  0.00000000E+00  0.00000000E+00  0.00000000E+00
  0.00000000E+00  0.00000000E+00  0.00000000E+00
  0.00000000E+00  0.00000000E+00  0.00000000E+00
  0.00000000E+00  0.00000000E+00  0.00000000E+00
  0.00000000E+00  0.00000000E+00  0.00000000E+00
  0.00000000E+00  0.00000000E+00  0.00000000E+00
  0.00000000E+00  0.00000000E+00  0.00000000E+00
  0.00000000E+00  0.00000000E+00  0.00000000E+00
  0.00000000E+00  0.00000000E+00  0.00000000E+00
  0.00000000E+00  0.00000000E+00  0.00000000E+00
