Ba Sr Ti  O                             
   1.00000000000000     
     8.0131589178362415    0.0000000000000000    0.0000000000000000
     0.0000000000000000    7.8305526315789464    0.0000000000000000
     0.0000000000000000    0.0000000000000000    7.8305526315789464
   Ba   Sr   Ti   O 
     4     4     8    24
Direct
  0.9949677422230625  0.0148588815713504  0.0471417481204958
  0.9949722076130656  0.5148662329388463  0.5471512480650471
  0.4949718824369065  0.5148677663390167  0.0471380401565168
  0.4949670448968335  0.0148557549791727  0.5471466617392526
  0.4908678072896809  0.0148284014454145  0.0470374795830077
  0.9908941139073369  0.5147217860305123  0.0470834479423850
  0.9909092139691362  0.0148549104946180  0.5469386487078025
  0.4909838287004463  0.5147336551492107  0.5469593256708434
  0.7395449322136207  0.2647953820954845  0.2970399132242414
  0.2395528526200693  0.2648010373030986  0.2970353124076597
  0.7395482831868608  0.7648255286781499  0.2970434973829151
  0.2395489889791513  0.7648289633551661  0.2970432329208535
  0.7395411411878580  0.2647991746616706  0.7970655865722025
  0.2395370916024726  0.2648072817632675  0.7970771446816564
  0.7395472477412784  0.7648428977077248  0.7970847106737904
  0.2395356166655672  0.7648352405381339  0.7970905817995388
  0.0030782593359389  0.2648562213856951  0.2971472439858810
  0.5030823235311807  0.2648980028990621  0.2972687820853811
  0.0031106376858964  0.7649251789471931  0.2972284624418901
  0.5031197681241772  0.7648885668513701  0.2971649667363531
  0.0031089927558975  0.2649305233618552  0.7973176925492491
  0.5031148590150909  0.2648048398336980  0.7972016476534365
  0.0031412780851896  0.7648458742853805  0.7972371271313724
  0.5031522618336590  0.7649695526217887  0.7972925953424144
  0.7522861336444316  0.0148958957805955  0.2981174209664401
  0.2522543763630493  0.0149161891226680  0.2963644433050361
  0.7522631063156913  0.5148680662915671  0.2963565370854976
  0.2522598722693196  0.5148921272430682  0.2981087021200112
  0.7523352955161493  0.0148954795402644  0.7963680166941803
  0.2522841672787440  0.0149170355256748  0.7981860396971352
  0.7522720696743526  0.5148679361037471  0.7981867345509133
  0.2523157670306478  0.5148915875079878  0.7963922462082605
  0.7521752355033415  0.2655782625330974  0.0472568956339226
  0.2522768757457659  0.2641097369118144  0.0472577588603300
  0.7522985144827570  0.7641212267224224  0.0472567574578489
  0.2522678728338473  0.7657304746015674  0.0472599675582223
  0.7522820997444570  0.2640923669376278  0.5472286130222535
  0.2521611915209414  0.2656188231866352  0.5472333589655960
  0.7522389554854636  0.7656672331139296  0.5472293355234761
  0.2522650719364757  0.7641581853940111  0.5472342713619446
 
  0.00000000E+00  0.00000000E+00  0.00000000E+00
  0.00000000E+00  0.00000000E+00  0.00000000E+00
  0.00000000E+00  0.00000000E+00  0.00000000E+00
  0.00000000E+00  0.00000000E+00  0.00000000E+00
  0.00000000E+00  0.00000000E+00  0.00000000E+00
  0.00000000E+00  0.00000000E+00  0.00000000E+00
  0.00000000E+00  0.00000000E+00  0.00000000E+00
  0.00000000E+00  0.00000000E+00  0.00000000E+00
  0.00000000E+00  0.00000000E+00  0.00000000E+00
  0.00000000E+00  0.00000000E+00  0.00000000E+00
  0.00000000E+00  0.00000000E+00  0.00000000E+00
  0.00000000E+00  0.00000000E+00  0.00000000E+00
  0.00000000E+00  0.00000000E+00  0.00000000E+00
  0.00000000E+00  0.00000000E+00  0.00000000E+00
  0.00000000E+00  0.00000000E+00  0.00000000E+00
  0.00000000E+00  0.00000000E+00  0.00000000E+00
  0.00000000E+00  0.00000000E+00  0.00000000E+00
  0.00000000E+00  0.00000000E+00  0.00000000E+00
  0.00000000E+00  0.00000000E+00  0.00000000E+00
  0.00000000E+00  0.00000000E+00  0.00000000E+00
  0.00000000E+00  0.00000000E+00  0.00000000E+00
  0.00000000E+00  0.00000000E+00  0.00000000E+00
  0.00000000E+00  0.00000000E+00  0.00000000E+00
  0.00000000E+00  0.00000000E+00  0.00000000E+00
  0.00000000E+00  0.00000000E+00  0.00000000E+00
  0.00000000E+00  0.00000000E+00  0.00000000E+00
  0.00000000E+00  0.00000000E+00  0.00000000E+00
  0.00000000E+00  0.00000000E+00  0.00000000E+00
  0.00000000E+00  0.00000000E+00  0.00000000E+00
  0.00000000E+00  0.00000000E+00  0.00000000E+00
  0.00000000E+00  0.00000000E+00  0.00000000E+00
  0.00000000E+00  0.00000000E+00  0.00000000E+00
  0.00000000E+00  0.00000000E+00  0.00000000E+00
  0.00000000E+00  0.00000000E+00  0.00000000E+00
  0.00000000E+00  0.00000000E+00  0.00000000E+00
  0.00000000E+00  0.00000000E+00  0.00000000E+00
  0.00000000E+00  0.00000000E+00  0.00000000E+00
  0.00000000E+00  0.00000000E+00  0.00000000E+00
  0.00000000E+00  0.00000000E+00  0.00000000E+00
  0.00000000E+00  0.00000000E+00  0.00000000E+00
