Ba Sr Ti  O                             
   1.00000000000000     
     7.9536156488717973    0.0000000000000000    0.0000000000000000
     0.0000000000000000    7.8757684210526309    0.0000000000000000
     0.0000000000000000    0.0000000000000000    7.8757684210526309
   Ba   Sr   Ti   O 
     4     4     8    24
Direct
  0.9960058691964865  0.0148740499949095  0.0471745071242474
  0.9959482896596186  0.5148852267176910  0.5471908200462807
  0.4959859021542733  0.5148871704302377  0.0471916082961793
  0.4959745019724259  0.0148933818978510  0.5471832710815941
  0.4932945129420269  0.0148336257140398  0.0471028699774138
  0.9933095117538268  0.5147760247528692  0.0471637100430245
  0.9933352829193798  0.0148751786646945  0.5470589170555676
  0.4933737952021363  0.5147808897353715  0.5470741519393036
  0.7422022484364058  0.2648192159089420  0.2970917071300070
  0.2421976837394574  0.2648274369185880  0.2970969162718172
  0.7421812255336713  0.7648113541644577  0.2971568879145149
  0.2421728435300481  0.7648004466599433  0.2971687734452687
  0.7421833431273456  0.2648819599583608  0.7970789240052679
  0.2421741727468283  0.2648826423994528  0.7970905133861923
  0.7421625674805974  0.7648819154065927  0.7971538491220727
  0.2421505466893005  0.7648562170650818  0.7971673027404422
  0.0014311276245159  0.2649244204759432  0.2971692228181174
  0.5014372132157308  0.2649120156507977  0.2972880477353777
  0.0014939262582087  0.7648565659410325  0.2971474348314336
  0.5015034460590538  0.7648750511659462  0.2972074336057549
  0.0014854817361842  0.2649577701060710  0.7972869317852886
  0.5014877480556520  0.2647971076179213  0.7971749212858995
  0.0015459336950984  0.7647740206414746  0.7972485749330191
  0.5015497624556043  0.7649104082734962  0.7971596473454905
  0.7509031773331662  0.0148738744027677  0.2977463667875668
  0.2508770387124003  0.0149057316258188  0.2966083999095050
  0.7508327810691932  0.5148638587458449  0.2966751414214391
  0.2508721236069660  0.5148958525806998  0.2978106652756160
  0.7510539630172891  0.0148472139775645  0.7966016194230388
  0.2508775781476617  0.0148799358558758  0.7977972347816543
  0.7508128559622976  0.5148374892111661  0.7977315133259615
  0.2510286698240337  0.5148711798742327  0.7965507531563971
  0.7508236511730401  0.2653995799952436  0.0472224332097352
  0.2509045920196453  0.2643610872132899  0.0472239001889227
  0.7509860618710821  0.7642504282874958  0.0471889931041338
  0.2509749664282083  0.7654449337565382  0.0471942071195483
  0.7509035910797762  0.2642622143140602  0.5472146092315753
  0.2507598392670600  0.2653898672740475  0.5472132417374107
  0.7509370186947422  0.7654410749953083  0.5471831633702832
  0.2509001365553730  0.7643638633818378  0.5471830106228908
 
  0.00000000E+00  0.00000000E+00  0.00000000E+00
  0.00000000E+00  0.00000000E+00  0.00000000E+00
  0.00000000E+00  0.00000000E+00  0.00000000E+00
  0.00000000E+00  0.00000000E+00  0.00000000E+00
  0.00000000E+00  0.00000000E+00  0.00000000E+00
  0.00000000E+00  0.00000000E+00  0.00000000E+00
  0.00000000E+00  0.00000000E+00  0.00000000E+00
  0.00000000E+00  0.00000000E+00  0.00000000E+00
  0.00000000E+00  0.00000000E+00  0.00000000E+00
  0.00000000E+00  0.00000000E+00  0.00000000E+00
  0.00000000E+00  0.00000000E+00  0.00000000E+00
  0.00000000E+00  0.00000000E+00  0.00000000E+00
  0.00000000E+00  0.00000000E+00  0.00000000E+00
  0.00000000E+00  0.00000000E+00  0.00000000E+00
  0.00000000E+00  0.00000000E+00  0.00000000E+00
  0.00000000E+00  0.00000000E+00  0.00000000E+00
  0.00000000E+00  0.00000000E+00  0.00000000E+00
  0.00000000E+00  0.00000000E+00  0.00000000E+00
  0.00000000E+00  0.00000000E+00  0.00000000E+00
  0.00000000E+00  0.00000000E+00  0.00000000E+00
  0.00000000E+00  0.00000000E+00  0.00000000E+00
  0.00000000E+00  0.00000000E+00  0.00000000E+00
  0.00000000E+00  0.00000000E+00  0.00000000E+00
  0.00000000E+00  0.00000000E+00  0.00000000E+00
  0.00000000E+00  0.00000000E+00  0.00000000E+00
  0.00000000E+00  0.00000000E+00  0.00000000E+00
  0.00000000E+00  0.00000000E+00  0.00000000E+00
  0.00000000E+00  0.00000000E+00  0.00000000E+00
  0.00000000E+00  0.00000000E+00  0.00000000E+00
  0.00000000E+00  0.00000000E+00  0.00000000E+00
  0.00000000E+00  0.00000000E+00  0.00000000E+00
  0.00000000E+00  0.00000000E+00  0.00000000E+00
  0.00000000E+00  0.00000000E+00  0.00000000E+00
  0.00000000E+00  0.00000000E+00  0.00000000E+00
  0.00000000E+00  0.00000000E+00  0.00000000E+00
  0.00000000E+00  0.00000000E+00  0.00000000E+00
  0.00000000E+00  0.00000000E+00  0.00000000E+00
  0.00000000E+00  0.00000000E+00  0.00000000E+00
  0.00000000E+00  0.00000000E+00  0.00000000E+00
  0.00000000E+00  0.00000000E+00  0.00000000E+00
