Ba Sr Ti  O                             
   1.00000000000000     
     7.9977969414247765    0.0000000000000000    0.0000000000000000
     0.0000000000000000    7.8428842105263152    0.0000000000000000
     0.0000000000000000    0.0000000000000000    7.8428842105263152
   Ba   Sr   Ti   O 
     4     4     8    24
Direct
  0.9951994146482885  0.0148507066296244  0.0471339791450347
  0.9951763722068726  0.5148575568383761  0.5471393526090603
  0.4951908790849978  0.5148597314256521  0.0471336582126489
  0.4951815653507388  0.0148539673912939  0.5471363757666504
  0.4913504338658960  0.0147920580482246  0.0470007765163456
  0.9913682105406103  0.5147272950586353  0.0470479268862386
  0.9913896799532181  0.0148180509409670  0.5469457161075518
  0.4914374775496682  0.5147377918027813  0.5469648687804410
  0.7401108152906092  0.2647816665283385  0.2970206699919794
  0.2401163117335468  0.2647904953379611  0.2970196883103785
  0.7401280403700728  0.7648012563122417  0.2970301591563630
  0.2401263262182467  0.7647992468862083  0.2970316370758572
  0.7401115696054337  0.2647901817530799  0.7970319455557703
  0.2401191875211266  0.2648010301943822  0.7970414267396252
  0.7401335116861378  0.7648215611296204  0.7970531822790096
  0.2401346204326978  0.7648068879503627  0.7970572841910446
  0.0027221442300464  0.2648852871683279  0.2971740393506576
  0.5027309603409503  0.2649205390723276  0.2972964807794460
  0.0027581497522323  0.7649183634021346  0.2972377499837368
  0.5027691875517423  0.7648835345658072  0.2972025891922446
  0.0027479689807864  0.2649673312911417  0.7973267703751983
  0.5027666898024735  0.2648144678247624  0.7972060096045989
  0.0027844040071282  0.7648261170789032  0.7972571320969984
  0.5028049634256805  0.7649729978936199  0.7972796721583072
  0.7520029811555836  0.0149047271149207  0.2980661768548186
  0.2519621979295068  0.0149263782567748  0.2964370550913106
  0.7519503037628049  0.5148810794363261  0.2964504746370359
  0.2519711722305732  0.5149061248325404  0.2980788209550712
  0.7520743962661324  0.0149029637002508  0.7964337589554484
  0.2519893405289322  0.0149246986830099  0.7981240577218616
  0.7519608572340973  0.5148779037092556  0.7981073881344706
  0.2520452207418234  0.5149036719552281  0.7964358743868404
  0.7519044172028072  0.2655741370529116  0.0472682890488374
  0.2519887141628702  0.2641739564296992  0.0472725073323248
  0.7520252088039873  0.7641460564313155  0.0472659169232799
  0.2520048112058780  0.7656848866091958  0.0472716603899011
  0.7519877588896187  0.2641304081984659  0.5472491727096485
  0.2518682643769364  0.2655985534385109  0.5472489295722892
  0.7519709708695430  0.7656453343499618  0.5472458492601144
  0.2519694814355235  0.7642032790304166  0.5472471737468144
 
  0.00000000E+00  0.00000000E+00  0.00000000E+00
  0.00000000E+00  0.00000000E+00  0.00000000E+00
  0.00000000E+00  0.00000000E+00  0.00000000E+00
  0.00000000E+00  0.00000000E+00  0.00000000E+00
  0.00000000E+00  0.00000000E+00  0.00000000E+00
  0.00000000E+00  0.00000000E+00  0.00000000E+00
  0.00000000E+00  0.00000000E+00  0.00000000E+00
  0.00000000E+00  0.00000000E+00  0.00000000E+00
  0.00000000E+00  0.00000000E+00  0.00000000E+00
  0.00000000E+00  0.00000000E+00  0.00000000E+00
  0.00000000E+00  0.00000000E+00  0.00000000E+00
  0.00000000E+00  0.00000000E+00  0.00000000E+00
  0.00000000E+00  0.00000000E+00  0.00000000E+00
  0.00000000E+00  0.00000000E+00  0.00000000E+00
  0.00000000E+00  0.00000000E+00  0.00000000E+00
  0.00000000E+00  0.00000000E+00  0.00000000E+00
  0.00000000E+00  0.00000000E+00  0.00000000E+00
  0.00000000E+00  0.00000000E+00  0.00000000E+00
  0.00000000E+00  0.00000000E+00  0.00000000E+00
  0.00000000E+00  0.00000000E+00  0.00000000E+00
  0.00000000E+00  0.00000000E+00  0.00000000E+00
  0.00000000E+00  0.00000000E+00  0.00000000E+00
  0.00000000E+00  0.00000000E+00  0.00000000E+00
  0.00000000E+00  0.00000000E+00  0.00000000E+00
  0.00000000E+00  0.00000000E+00  0.00000000E+00
  0.00000000E+00  0.00000000E+00  0.00000000E+00
  0.00000000E+00  0.00000000E+00  0.00000000E+00
  0.00000000E+00  0.00000000E+00  0.00000000E+00
  0.00000000E+00  0.00000000E+00  0.00000000E+00
  0.00000000E+00  0.00000000E+00  0.00000000E+00
  0.00000000E+00  0.00000000E+00  0.00000000E+00
  0.00000000E+00  0.00000000E+00  0.00000000E+00
  0.00000000E+00  0.00000000E+00  0.00000000E+00
  0.00000000E+00  0.00000000E+00  0.00000000E+00
  0.00000000E+00  0.00000000E+00  0.00000000E+00
  0.00000000E+00  0.00000000E+00  0.00000000E+00
  0.00000000E+00  0.00000000E+00  0.00000000E+00
  0.00000000E+00  0.00000000E+00  0.00000000E+00
  0.00000000E+00  0.00000000E+00  0.00000000E+00
  0.00000000E+00  0.00000000E+00  0.00000000E+00
