Ba Sr Ti  O                             
   1.00000000000000     
     8.0252908104903415    0.0000000000000000    0.0000000000000000
     0.0000000000000000    7.8223315789473684    0.0000000000000000
     0.0000000000000000    0.0000000000000000    7.8223315789473684
   Ba   Sr   Ti   O 
     4     4     8    24
Direct
  0.9947542584071835  0.0148599883027801  0.0471416936231235
  0.9947699752313838  0.5148693458546806  0.5471519171762308
  0.4947605582021961  0.5148689976043103  0.0471353679186410
  0.4947539834200033  0.0148546614016574  0.5471470795207186
  0.4903250621977568  0.0148391514630357  0.0470407609282931
  0.9903510354992726  0.5147227971271550  0.0470858626700930
  0.9903687486706112  0.0148626256843723  0.5469329431236405
  0.4904417994641895  0.5147379255612032  0.5469565133451310
  0.7390669229943174  0.2647864111698107  0.2970405805404495
  0.2390835849463623  0.2648002640429926  0.2970462177956304
  0.7390728846754945  0.7648483905210618  0.2970457773893813
  0.2390821026124474  0.7648447317340453  0.2970567680996447
  0.7390645018530284  0.2647907703041131  0.7970796610706881
  0.2390719453307533  0.2648081694793696  0.7970794343906062
  0.7390736600278790  0.7648570661270746  0.7970889433760644
  0.2390727655051940  0.7648429705390812  0.7970819730848123
  0.0033783552093905  0.2648545858064230  0.2971432471889932
  0.5033923895804442  0.2648934509378036  0.2972603415524397
  0.0034100280358916  0.7649169937576167  0.2972192449028766
  0.5034305226736400  0.7648815376484902  0.2971651831855519
  0.0034071359603435  0.2649286953387920  0.7973121737972632
  0.5034261109854484  0.2648034595630812  0.7971993769261763
  0.0034393158293368  0.7648414815851006  0.7972423054969318
  0.5034647724826580  0.7649670270301084  0.7972902971382743
  0.7525594089754963  0.0148883059939113  0.2981805673675648
  0.2525239198453088  0.0149091056181167  0.2963063531939480
  0.7525359137139038  0.5148675481002377  0.2962959740448343
  0.2525335538564591  0.5148920793929264  0.2981658840258782
  0.7526088543239589  0.0148872490720446  0.7963056046579328
  0.2525544113551538  0.0149092613629872  0.7982522536987532
  0.7525459510533224  0.5148702137281147  0.7982529147273459
  0.2525877645310300  0.5148940330718458  0.7963369228073459
  0.7524440477236464  0.2656245852849826  0.0472488867529592
  0.2525466291388692  0.2640563559196534  0.0472508175513678
  0.7525648862429113  0.7640678960943943  0.0472483332947080
  0.2525402496232722  0.7657848819014845  0.0472528051031593
  0.7525520532587703  0.2640446776290703  0.5472286336701213
  0.2524325624087047  0.2656691550008786  0.5472330703656291
  0.7525105745129110  0.7657128861589249  0.5472324894227831
  0.2525317805868756  0.7641025488398255  0.5472370216592686
 
  0.00000000E+00  0.00000000E+00  0.00000000E+00
  0.00000000E+00  0.00000000E+00  0.00000000E+00
  0.00000000E+00  0.00000000E+00  0.00000000E+00
  0.00000000E+00  0.00000000E+00  0.00000000E+00
  0.00000000E+00  0.00000000E+00  0.00000000E+00
  0.00000000E+00  0.00000000E+00  0.00000000E+00
  0.00000000E+00  0.00000000E+00  0.00000000E+00
  0.00000000E+00  0.00000000E+00  0.00000000E+00
  0.00000000E+00  0.00000000E+00  0.00000000E+00
  0.00000000E+00  0.00000000E+00  0.00000000E+00
  0.00000000E+00  0.00000000E+00  0.00000000E+00
  0.00000000E+00  0.00000000E+00  0.00000000E+00
  0.00000000E+00  0.00000000E+00  0.00000000E+00
  0.00000000E+00  0.00000000E+00  0.00000000E+00
  0.00000000E+00  0.00000000E+00  0.00000000E+00
  0.00000000E+00  0.00000000E+00  0.00000000E+00
  0.00000000E+00  0.00000000E+00  0.00000000E+00
  0.00000000E+00  0.00000000E+00  0.00000000E+00
  0.00000000E+00  0.00000000E+00  0.00000000E+00
  0.00000000E+00  0.00000000E+00  0.00000000E+00
  0.00000000E+00  0.00000000E+00  0.00000000E+00
  0.00000000E+00  0.00000000E+00  0.00000000E+00
  0.00000000E+00  0.00000000E+00  0.00000000E+00
  0.00000000E+00  0.00000000E+00  0.00000000E+00
  0.00000000E+00  0.00000000E+00  0.00000000E+00
  0.00000000E+00  0.00000000E+00  0.00000000E+00
  0.00000000E+00  0.00000000E+00  0.00000000E+00
  0.00000000E+00  0.00000000E+00  0.00000000E+00
  0.00000000E+00  0.00000000E+00  0.00000000E+00
  0.00000000E+00  0.00000000E+00  0.00000000E+00
  0.00000000E+00  0.00000000E+00  0.00000000E+00
  0.00000000E+00  0.00000000E+00  0.00000000E+00
  0.00000000E+00  0.00000000E+00  0.00000000E+00
  0.00000000E+00  0.00000000E+00  0.00000000E+00
  0.00000000E+00  0.00000000E+00  0.00000000E+00
  0.00000000E+00  0.00000000E+00  0.00000000E+00
  0.00000000E+00  0.00000000E+00  0.00000000E+00
  0.00000000E+00  0.00000000E+00  0.00000000E+00
  0.00000000E+00  0.00000000E+00  0.00000000E+00
  0.00000000E+00  0.00000000E+00  0.00000000E+00
