Ba Sr Ti  O                             
   1.00000000000000     
     7.9574038079251039    0.0000000000000000    0.0000000000000000
     0.0000000000000000    7.8716578947368410    0.0000000000000000
     0.0000000000000000    0.0000000000000000    7.8716578947368410
   Ba   Sr   Ti   O 
     4     4     8    24
Direct
  0.9959672172087004  0.0148902312121223  0.0471942560675627
  0.9959006930114516  0.5148736594497018  0.5471801178472634
  0.4959443667964619  0.5148762259029266  0.0472113252721356
  0.4959320355474701  0.0149109897127514  0.5471749386600288
  0.4932079611318732  0.0148164095783160  0.0470920417618653
  0.9932191004420978  0.5148160473092795  0.0471349655356800
  0.9932389843001013  0.0148427442646648  0.5471052460513863
  0.4932551877933535  0.5148204172444502  0.5471164074839969
  0.7420490024075490  0.2648396622534618  0.2971204234858670
  0.2420408427878063  0.2648481940381915  0.2971244459457469
  0.7420492120225483  0.7648284547907948  0.2971578422615688
  0.2420368977204324  0.7648176737335188  0.2971671036322500
  0.7420401761851542  0.2648772869114988  0.7971061754979100
  0.2420336409328006  0.2648795461037735  0.7971140613462047
  0.7420457588018318  0.7648693848815643  0.7971524670249390
  0.2420362297602145  0.7648483283066299  0.7971551331686693
  0.0015269135133020  0.2649169226960092  0.2971681796471373
  0.5015363258220298  0.2649117782929789  0.2972780008930642
  0.0015743221943222  0.7648626388966902  0.2971826635968652
  0.5015867279741336  0.7648623058051632  0.2971939616406202
  0.0015673924646932  0.2649400001554616  0.7972627580032652
  0.5015778120152716  0.2648341340234952  0.7971503546773777
  0.0016131061456211  0.7648032604809194  0.7972074418246288
  0.5016241313891043  0.7648887274688371  0.7971697691741034
  0.7509730311308069  0.0148688087977653  0.2977789434951044
  0.2509589069601961  0.0148940074198536  0.2965868266177952
  0.7509162776262639  0.5148613884406609  0.2966286469615847
  0.2509328011221790  0.5148850886268687  0.2978196721360875
  0.7510960897517810  0.0148515505797425  0.7965641445682612
  0.2509544851147429  0.0148765956465500  0.7977982128444322
  0.7508977055377563  0.5148437970456743  0.7977641434207209
  0.2510567948753908  0.5148686744962132  0.7965393267838935
  0.7508924823563936  0.2653902823179517  0.0472094516790075
  0.2509805003294009  0.2643417173679311  0.0472133701567983
  0.7510528444717552  0.7642612441804711  0.0471869576608812
  0.2509944106628469  0.7654217981427077  0.0471942541363862
  0.7509642404880443  0.2642769454483670  0.5472044668850499
  0.2508328172429900  0.2653998475945369  0.5472001046295983
  0.7509514292918468  0.7654116423348223  0.5471832262083955
  0.2509761256150995  0.7643338698002414  0.5471803679011218
 
  0.00000000E+00  0.00000000E+00  0.00000000E+00
  0.00000000E+00  0.00000000E+00  0.00000000E+00
  0.00000000E+00  0.00000000E+00  0.00000000E+00
  0.00000000E+00  0.00000000E+00  0.00000000E+00
  0.00000000E+00  0.00000000E+00  0.00000000E+00
  0.00000000E+00  0.00000000E+00  0.00000000E+00
  0.00000000E+00  0.00000000E+00  0.00000000E+00
  0.00000000E+00  0.00000000E+00  0.00000000E+00
  0.00000000E+00  0.00000000E+00  0.00000000E+00
  0.00000000E+00  0.00000000E+00  0.00000000E+00
  0.00000000E+00  0.00000000E+00  0.00000000E+00
  0.00000000E+00  0.00000000E+00  0.00000000E+00
  0.00000000E+00  0.00000000E+00  0.00000000E+00
  0.00000000E+00  0.00000000E+00  0.00000000E+00
  0.00000000E+00  0.00000000E+00  0.00000000E+00
  0.00000000E+00  0.00000000E+00  0.00000000E+00
  0.00000000E+00  0.00000000E+00  0.00000000E+00
  0.00000000E+00  0.00000000E+00  0.00000000E+00
  0.00000000E+00  0.00000000E+00  0.00000000E+00
  0.00000000E+00  0.00000000E+00  0.00000000E+00
  0.00000000E+00  0.00000000E+00  0.00000000E+00
  0.00000000E+00  0.00000000E+00  0.00000000E+00
  0.00000000E+00  0.00000000E+00  0.00000000E+00
  0.00000000E+00  0.00000000E+00  0.00000000E+00
  0.00000000E+00  0.00000000E+00  0.00000000E+00
  0.00000000E+00  0.00000000E+00  0.00000000E+00
  0.00000000E+00  0.00000000E+00  0.00000000E+00
  0.00000000E+00  0.00000000E+00  0.00000000E+00
  0.00000000E+00  0.00000000E+00  0.00000000E+00
  0.00000000E+00  0.00000000E+00  0.00000000E+00
  0.00000000E+00  0.00000000E+00  0.00000000E+00
  0.00000000E+00  0.00000000E+00  0.00000000E+00
  0.00000000E+00  0.00000000E+00  0.00000000E+00
  0.00000000E+00  0.00000000E+00  0.00000000E+00
  0.00000000E+00  0.00000000E+00  0.00000000E+00
  0.00000000E+00  0.00000000E+00  0.00000000E+00
  0.00000000E+00  0.00000000E+00  0.00000000E+00
  0.00000000E+00  0.00000000E+00  0.00000000E+00
  0.00000000E+00  0.00000000E+00  0.00000000E+00
  0.00000000E+00  0.00000000E+00  0.00000000E+00
