Ba Sr Ti  O                             
   1.00000000000000     
     8.0285766659915510    0.0000000000000000    0.0000000000000000
     0.0000000000000000    7.8182210526315785    0.0000000000000000
     0.0000000000000000    0.0000000000000000    7.8182210526315785
   Ba   Sr   Ti   O 
     4     4     8    24
Direct
  0.9947740444809487  0.0148310818526348  0.0471149734529726
  0.9948000580022461  0.5148828129427685  0.5471674176607787
  0.4947760874560555  0.5148824869126609  0.0471136801902263
  0.4947734073214026  0.0148287191150594  0.5471612529235346
  0.4903460810304263  0.0148730220579915  0.0470816515558602
  0.9903772782222464  0.5147274361377122  0.0471260929842959
  0.9903922204151658  0.0148977679092968  0.5469411789670202
  0.4904762436064106  0.5147425950499239  0.5469651686754483
  0.7390028174801672  0.2648113165784254  0.2970643657128785
  0.2390152220547602  0.2648198312151489  0.2970635804985070
  0.7390115273940747  0.7648284481064562  0.2970678345017626
  0.2390161311573421  0.7648309999216604  0.2970747671227895
  0.7390110230063683  0.2648158922436294  0.7970705391995366
  0.2390043980487315  0.2648266515299204  0.7970773517773443
  0.7390214781347300  0.7648413094723348  0.7970859263946514
  0.2390072784255226  0.7648341660443587  0.7970862729860525
  0.0034159373225554  0.2648601602398464  0.2971507957817547
  0.5034259994054694  0.2649074217754633  0.2972737995128546
  0.0034384821132508  0.7648970867903814  0.2972325823110691
  0.5034532416295440  0.7648542569898344  0.2971719107284341
  0.0034317490202467  0.2649259748611226  0.7972822758976786
  0.5034422817573132  0.2648239972449749  0.7971647919129174
  0.0034569603119643  0.7648278828276649  0.7972057769323574
  0.5034720305791167  0.7649317495036638  0.7972618655596727
  0.7525595755811890  0.0148909228367483  0.2982020691387740
  0.2525353292844703  0.0149106050930360  0.2963204935159786
  0.7525502126340046  0.5148770473838072  0.2962978683049397
  0.2525514173950793  0.5148993614751520  0.2981734769378208
  0.7526017180576245  0.0148913484853959  0.7962669871755715
  0.2525651004798445  0.0149115635950258  0.7982191423101566
  0.7525598739202105  0.5148785938921044  0.7982263768397714
  0.2525989963470534  0.5149005406719432  0.7963065038084055
  0.7524407788326689  0.2656299070623255  0.0472494605710682
  0.2525584169998844  0.2640709516626446  0.0472491309084495
  0.7525625694342887  0.7640503368562028  0.0472511468625318
  0.2525346996222083  0.7657502019229764  0.0472517581167921
  0.7525589045615944  0.2640712143854442  0.5472329986629918
  0.2524562254519985  0.2656776854673192  0.5472402674358011
  0.7525036837045991  0.7656688250229997  0.5472353706229049
  0.2525555002630421  0.7640801086174960  0.5472432921329003
 
  0.00000000E+00  0.00000000E+00  0.00000000E+00
  0.00000000E+00  0.00000000E+00  0.00000000E+00
  0.00000000E+00  0.00000000E+00  0.00000000E+00
  0.00000000E+00  0.00000000E+00  0.00000000E+00
  0.00000000E+00  0.00000000E+00  0.00000000E+00
  0.00000000E+00  0.00000000E+00  0.00000000E+00
  0.00000000E+00  0.00000000E+00  0.00000000E+00
  0.00000000E+00  0.00000000E+00  0.00000000E+00
  0.00000000E+00  0.00000000E+00  0.00000000E+00
  0.00000000E+00  0.00000000E+00  0.00000000E+00
  0.00000000E+00  0.00000000E+00  0.00000000E+00
  0.00000000E+00  0.00000000E+00  0.00000000E+00
  0.00000000E+00  0.00000000E+00  0.00000000E+00
  0.00000000E+00  0.00000000E+00  0.00000000E+00
  0.00000000E+00  0.00000000E+00  0.00000000E+00
  0.00000000E+00  0.00000000E+00  0.00000000E+00
  0.00000000E+00  0.00000000E+00  0.00000000E+00
  0.00000000E+00  0.00000000E+00  0.00000000E+00
  0.00000000E+00  0.00000000E+00  0.00000000E+00
  0.00000000E+00  0.00000000E+00  0.00000000E+00
  0.00000000E+00  0.00000000E+00  0.00000000E+00
  0.00000000E+00  0.00000000E+00  0.00000000E+00
  0.00000000E+00  0.00000000E+00  0.00000000E+00
  0.00000000E+00  0.00000000E+00  0.00000000E+00
  0.00000000E+00  0.00000000E+00  0.00000000E+00
  0.00000000E+00  0.00000000E+00  0.00000000E+00
  0.00000000E+00  0.00000000E+00  0.00000000E+00
  0.00000000E+00  0.00000000E+00  0.00000000E+00
  0.00000000E+00  0.00000000E+00  0.00000000E+00
  0.00000000E+00  0.00000000E+00  0.00000000E+00
  0.00000000E+00  0.00000000E+00  0.00000000E+00
  0.00000000E+00  0.00000000E+00  0.00000000E+00
  0.00000000E+00  0.00000000E+00  0.00000000E+00
  0.00000000E+00  0.00000000E+00  0.00000000E+00
  0.00000000E+00  0.00000000E+00  0.00000000E+00
  0.00000000E+00  0.00000000E+00  0.00000000E+00
  0.00000000E+00  0.00000000E+00  0.00000000E+00
  0.00000000E+00  0.00000000E+00  0.00000000E+00
  0.00000000E+00  0.00000000E+00  0.00000000E+00
  0.00000000E+00  0.00000000E+00  0.00000000E+00
