Ba Sr Ti  O                             
   1.00000000000000     
     7.9441683635176599    0.0000000000000000    0.0000000000000000
     0.0000000000000000    7.8839894736842098    0.0000000000000000
     0.0000000000000000    0.0000000000000000    7.8839894736842098
   Ba   Sr   Ti   O 
     4     4     8    24
Direct
  0.9961826585573315  0.0148635172918202  0.0471707549162734
  0.9961467399280660  0.5149274580690059  0.5472426118914803
  0.4961658654392127  0.5149265942897119  0.0471853035509003
  0.4961570518025713  0.0148783866959514  0.5472316397328553
  0.4936981266917881  0.0149210839447378  0.0472090630317825
  0.9937236057777690  0.5147578152046350  0.0473006019270809
  0.9937576118271628  0.0149878579821824  0.5470586221959768
  0.4938329915089799  0.5147638115830672  0.5470827675617606
  0.7427518457737559  0.2648282334303088  0.2971198818201666
  0.2427565186301283  0.2648374817202877  0.2971311548677474
  0.7426887440464041  0.7648363919277469  0.2972439153018889
  0.2426884055639956  0.7648235407380040  0.2972668222735926
  0.7427082042455818  0.2649455440360885  0.7971174504611866
  0.2427038493324426  0.2649428133635817  0.7971323363006402
  0.7426353458923767  0.7649619382932925  0.7972456414461585
  0.2426268543263914  0.7649281410435695  0.7972775232111993
  0.0010901174706958  0.2649246242224644  0.2971373953456898
  0.5010981818234154  0.2648768432674400  0.2972572817461854
  0.0011827711035848  0.7648060935990078  0.2970379034975538
  0.5011930553698160  0.7648814475312207  0.2971918868214058
  0.0011666889811183  0.2649443641122328  0.7972743887946865
  0.5011688196446402  0.2647243892187597  0.7971785818849775
  0.0012568976379570  0.7647121604199227  0.7972755745812314
  0.5012601787891811  0.7649005680110261  0.7970887246327047
  0.7506279125239634  0.0148536095508493  0.2976146905494291
  0.2505965204282125  0.0148959715375441  0.2966269027608444
  0.7505514999031667  0.5148394696772037  0.2967351766575650
  0.2506141551825271  0.5148853557775488  0.2977154980881260
  0.7508356475193415  0.0148078476529661  0.7966459813728455
  0.2505912487160907  0.0148527065537074  0.7977146711071467
  0.7505160698373951  0.5147931140918691  0.7975955096660297
  0.2508357864035284  0.5148421917538069  0.7965521431187658
  0.7505528988019795  0.2653573376170701  0.0471955444681654
  0.2506314828114607  0.2643930310082689  0.0471954862121404
  0.7507285533141246  0.7642305934659253  0.0471399760570061
  0.2507828558171659  0.7654205143975762  0.0471432625896307
  0.7506582546058058  0.2642396395393416  0.5471867974817669
  0.2504843249054793  0.2653137403096671  0.5471870766134667
  0.7507556592452100  0.7654253420012673  0.5471324937335091
  0.2506309807659950  0.7644107168228795  0.5471331583136914
 
  0.00000000E+00  0.00000000E+00  0.00000000E+00
  0.00000000E+00  0.00000000E+00  0.00000000E+00
  0.00000000E+00  0.00000000E+00  0.00000000E+00
  0.00000000E+00  0.00000000E+00  0.00000000E+00
  0.00000000E+00  0.00000000E+00  0.00000000E+00
  0.00000000E+00  0.00000000E+00  0.00000000E+00
  0.00000000E+00  0.00000000E+00  0.00000000E+00
  0.00000000E+00  0.00000000E+00  0.00000000E+00
  0.00000000E+00  0.00000000E+00  0.00000000E+00
  0.00000000E+00  0.00000000E+00  0.00000000E+00
  0.00000000E+00  0.00000000E+00  0.00000000E+00
  0.00000000E+00  0.00000000E+00  0.00000000E+00
  0.00000000E+00  0.00000000E+00  0.00000000E+00
  0.00000000E+00  0.00000000E+00  0.00000000E+00
  0.00000000E+00  0.00000000E+00  0.00000000E+00
  0.00000000E+00  0.00000000E+00  0.00000000E+00
  0.00000000E+00  0.00000000E+00  0.00000000E+00
  0.00000000E+00  0.00000000E+00  0.00000000E+00
  0.00000000E+00  0.00000000E+00  0.00000000E+00
  0.00000000E+00  0.00000000E+00  0.00000000E+00
  0.00000000E+00  0.00000000E+00  0.00000000E+00
  0.00000000E+00  0.00000000E+00  0.00000000E+00
  0.00000000E+00  0.00000000E+00  0.00000000E+00
  0.00000000E+00  0.00000000E+00  0.00000000E+00
  0.00000000E+00  0.00000000E+00  0.00000000E+00
  0.00000000E+00  0.00000000E+00  0.00000000E+00
  0.00000000E+00  0.00000000E+00  0.00000000E+00
  0.00000000E+00  0.00000000E+00  0.00000000E+00
  0.00000000E+00  0.00000000E+00  0.00000000E+00
  0.00000000E+00  0.00000000E+00  0.00000000E+00
  0.00000000E+00  0.00000000E+00  0.00000000E+00
  0.00000000E+00  0.00000000E+00  0.00000000E+00
  0.00000000E+00  0.00000000E+00  0.00000000E+00
  0.00000000E+00  0.00000000E+00  0.00000000E+00
  0.00000000E+00  0.00000000E+00  0.00000000E+00
  0.00000000E+00  0.00000000E+00  0.00000000E+00
  0.00000000E+00  0.00000000E+00  0.00000000E+00
  0.00000000E+00  0.00000000E+00  0.00000000E+00
  0.00000000E+00  0.00000000E+00  0.00000000E+00
  0.00000000E+00  0.00000000E+00  0.00000000E+00
