Ba Sr Ti  O                             
   1.00000000000000     
     7.9606444353151842    0.0000000000000000    0.0000000000000000
     0.0000000000000000    7.8675473684210528    0.0000000000000000
     0.0000000000000000    0.0000000000000000    7.8675473684210528
   Ba   Sr   Ti   O 
     4     4     8    24
Direct
  0.9959276873808630  0.0148846134131326  0.0471897191740320
  0.9959316724986612  0.5149225554898242  0.5472336036424278
  0.4959404675625916  0.5149196662380755  0.0471934616626916
  0.4959351045514347  0.0148946739792130  0.5472294522170150
  0.4932692900874742  0.0149507634089230  0.0472322770345339
  0.9932741411970243  0.5147322207477607  0.0473033313893749
  0.9932873802076601  0.0150017654881710  0.5470206464978953
  0.4933669304946369  0.5147378575489897  0.5470480225323350
  0.7420429212225770  0.2648053249723749  0.2970999028649700
  0.2420507207402993  0.2648202192781937  0.2971179472770455
  0.7420240457598722  0.7648318873470907  0.2971784274132651
  0.2420248710102956  0.7648254862662340  0.2972088738697203
  0.7420302577137483  0.2648812808249290  0.7971128552377130
  0.2420228496253421  0.2648862084704471  0.7971116281146856
  0.7420090212443273  0.7648954595425125  0.7971794524797032
  0.2419959547980940  0.7648770983538966  0.7971820349527324
  0.0015085527472399  0.2649000951660881  0.2971479990067361
  0.5015143063134210  0.2649308287399612  0.2972948663570695
  0.0015666424373311  0.7648806232442379  0.2971749918791997
  0.5015817684512232  0.7648616812141525  0.2971797532916139
  0.0015927673907809  0.2648869041307699  0.7972660968792677
  0.5015776360450390  0.2648748358248885  0.7971316611520748
  0.0016438504091061  0.7648703799815277  0.7972115104619031
  0.5016356598676177  0.7648688275161150  0.7971869401641190
  0.7509711546446995  0.0148420119707448  0.2977869881466736
  0.2509576085866329  0.0148709607735265  0.2965929725458924
  0.7509509265900980  0.5148112839909992  0.2966208472547743
  0.2509474636378591  0.5148431375696085  0.2978087745250019
  0.7510679165155965  0.0148160386831647  0.7965622319430986
  0.2509166870669889  0.0148428703600378  0.7978319744888464
  0.7508857878035916  0.5147838126919302  0.7977891483543877
  0.2510503080913366  0.5148164212766314  0.7965433836646709
  0.7508652302924382  0.2653518729864955  0.0471774007171030
  0.2509715426572430  0.2643639497151099  0.0471817992834308
  0.7510627194971510  0.7642984687847099  0.0471430288841539
  0.2509145463594766  0.7654388215192034  0.0471541760160296
  0.7509729470517050  0.2643459822487683  0.5471530884136747
  0.2508452240071486  0.2653864243667220  0.5471498230122784
  0.7508796677679120  0.7653651882307472  0.5471224242006816
  0.2510207506192799  0.7643437793976479  0.5471186795824332
 
  0.00000000E+00  0.00000000E+00  0.00000000E+00
  0.00000000E+00  0.00000000E+00  0.00000000E+00
  0.00000000E+00  0.00000000E+00  0.00000000E+00
  0.00000000E+00  0.00000000E+00  0.00000000E+00
  0.00000000E+00  0.00000000E+00  0.00000000E+00
  0.00000000E+00  0.00000000E+00  0.00000000E+00
  0.00000000E+00  0.00000000E+00  0.00000000E+00
  0.00000000E+00  0.00000000E+00  0.00000000E+00
  0.00000000E+00  0.00000000E+00  0.00000000E+00
  0.00000000E+00  0.00000000E+00  0.00000000E+00
  0.00000000E+00  0.00000000E+00  0.00000000E+00
  0.00000000E+00  0.00000000E+00  0.00000000E+00
  0.00000000E+00  0.00000000E+00  0.00000000E+00
  0.00000000E+00  0.00000000E+00  0.00000000E+00
  0.00000000E+00  0.00000000E+00  0.00000000E+00
  0.00000000E+00  0.00000000E+00  0.00000000E+00
  0.00000000E+00  0.00000000E+00  0.00000000E+00
  0.00000000E+00  0.00000000E+00  0.00000000E+00
  0.00000000E+00  0.00000000E+00  0.00000000E+00
  0.00000000E+00  0.00000000E+00  0.00000000E+00
  0.00000000E+00  0.00000000E+00  0.00000000E+00
  0.00000000E+00  0.00000000E+00  0.00000000E+00
  0.00000000E+00  0.00000000E+00  0.00000000E+00
  0.00000000E+00  0.00000000E+00  0.00000000E+00
  0.00000000E+00  0.00000000E+00  0.00000000E+00
  0.00000000E+00  0.00000000E+00  0.00000000E+00
  0.00000000E+00  0.00000000E+00  0.00000000E+00
  0.00000000E+00  0.00000000E+00  0.00000000E+00
  0.00000000E+00  0.00000000E+00  0.00000000E+00
  0.00000000E+00  0.00000000E+00  0.00000000E+00
  0.00000000E+00  0.00000000E+00  0.00000000E+00
  0.00000000E+00  0.00000000E+00  0.00000000E+00
  0.00000000E+00  0.00000000E+00  0.00000000E+00
  0.00000000E+00  0.00000000E+00  0.00000000E+00
  0.00000000E+00  0.00000000E+00  0.00000000E+00
  0.00000000E+00  0.00000000E+00  0.00000000E+00
  0.00000000E+00  0.00000000E+00  0.00000000E+00
  0.00000000E+00  0.00000000E+00  0.00000000E+00
  0.00000000E+00  0.00000000E+00  0.00000000E+00
  0.00000000E+00  0.00000000E+00  0.00000000E+00
