Ba Sr Ti  O                             
   1.00000000000000     
     7.9919080036503711    0.0000000000000000    0.0000000000000000
     0.0000000000000000    7.8469947368421051    0.0000000000000000
     0.0000000000000000    0.0000000000000000    7.8469947368421051
   Ba   Sr   Ti   O 
     4     4     8    24
Direct
  0.9953120909747515  0.0148446540124614  0.0471295526461381
  0.9952831885810638  0.5148556024371316  0.5471397751447032
  0.4953020195413950  0.5148556911494114  0.0471328776009352
  0.4952913926007234  0.0148493502415055  0.5471331258701929
  0.4916105458738129  0.0147832618259486  0.0470009026883538
  0.9916225308167312  0.5147468590443350  0.0470407695151310
  0.9916450351247921  0.0148043716275979  0.5469744619986170
  0.4916789046609312  0.5147570279739475  0.5469900686265233
  0.7403644791607473  0.2647827521599385  0.2970293745731758
  0.2403653978460782  0.2647956407434831  0.2970350552544760
  0.7403853646740732  0.7648028041405046  0.2970418214048028
  0.2403783715673694  0.7647951844600169  0.2970495757891181
  0.7403725117953830  0.2647936324259068  0.7970332394513797
  0.2403677924860715  0.2648080953787985  0.7970359720860972
  0.7404006682737936  0.7648188406366450  0.7970495816627997
  0.2403850704273220  0.7647991640558406  0.7970465343681352
  0.0025666785173619  0.2648951506044678  0.2971800118673488
  0.5025731824268751  0.2649262434165837  0.2972993502589987
  0.0026003960358195  0.7649115288232020  0.2972411852230491
  0.5026067251361543  0.7648786082963482  0.2972067607304705
  0.0025904491583003  0.2649739058203233  0.7973197744179482
  0.5025994999324176  0.2648224653876639  0.7972000688892782
  0.0026280964173869  0.7648200269880251  0.7972495658135461
  0.5026314845126927  0.7649646629041340  0.7972706919981799
  0.7518625222422111  0.0149037986428516  0.2980363975021820
  0.2518256726196745  0.0149243701653732  0.2964625917881559
  0.7518065130905018  0.5148864490136406  0.2964794252405764
  0.2518314635305788  0.5149096107264551  0.2980497154570447
  0.7519375500193183  0.0149024750800098  0.7964538603708003
  0.2518544109629873  0.0149208372790724  0.7980801973041088
  0.7518194635561053  0.5148825262656905  0.7980621862849411
  0.2519097938101696  0.5149087664403066  0.7964539441223035
  0.7517688450857597  0.2655606727975675  0.0472658787312812
  0.2518527778254983  0.2642008517887287  0.0472676886454676
  0.7518886423057843  0.7641610947765337  0.0472640608931306
  0.2518712751321522  0.7656463333366047  0.0472644581398541
  0.7518458934585502  0.2641538202895883  0.5472508860751911
  0.2517310550433104  0.2655796005542828  0.5472523459421526
  0.7518342470988988  0.7656152672222342  0.5472465200670795
  0.2518329786222636  0.7642202828203967  0.5472519421415877
 
  0.00000000E+00  0.00000000E+00  0.00000000E+00
  0.00000000E+00  0.00000000E+00  0.00000000E+00
  0.00000000E+00  0.00000000E+00  0.00000000E+00
  0.00000000E+00  0.00000000E+00  0.00000000E+00
  0.00000000E+00  0.00000000E+00  0.00000000E+00
  0.00000000E+00  0.00000000E+00  0.00000000E+00
  0.00000000E+00  0.00000000E+00  0.00000000E+00
  0.00000000E+00  0.00000000E+00  0.00000000E+00
  0.00000000E+00  0.00000000E+00  0.00000000E+00
  0.00000000E+00  0.00000000E+00  0.00000000E+00
  0.00000000E+00  0.00000000E+00  0.00000000E+00
  0.00000000E+00  0.00000000E+00  0.00000000E+00
  0.00000000E+00  0.00000000E+00  0.00000000E+00
  0.00000000E+00  0.00000000E+00  0.00000000E+00
  0.00000000E+00  0.00000000E+00  0.00000000E+00
  0.00000000E+00  0.00000000E+00  0.00000000E+00
  0.00000000E+00  0.00000000E+00  0.00000000E+00
  0.00000000E+00  0.00000000E+00  0.00000000E+00
  0.00000000E+00  0.00000000E+00  0.00000000E+00
  0.00000000E+00  0.00000000E+00  0.00000000E+00
  0.00000000E+00  0.00000000E+00  0.00000000E+00
  0.00000000E+00  0.00000000E+00  0.00000000E+00
  0.00000000E+00  0.00000000E+00  0.00000000E+00
  0.00000000E+00  0.00000000E+00  0.00000000E+00
  0.00000000E+00  0.00000000E+00  0.00000000E+00
  0.00000000E+00  0.00000000E+00  0.00000000E+00
  0.00000000E+00  0.00000000E+00  0.00000000E+00
  0.00000000E+00  0.00000000E+00  0.00000000E+00
  0.00000000E+00  0.00000000E+00  0.00000000E+00
  0.00000000E+00  0.00000000E+00  0.00000000E+00
  0.00000000E+00  0.00000000E+00  0.00000000E+00
  0.00000000E+00  0.00000000E+00  0.00000000E+00
  0.00000000E+00  0.00000000E+00  0.00000000E+00
  0.00000000E+00  0.00000000E+00  0.00000000E+00
  0.00000000E+00  0.00000000E+00  0.00000000E+00
  0.00000000E+00  0.00000000E+00  0.00000000E+00
  0.00000000E+00  0.00000000E+00  0.00000000E+00
  0.00000000E+00  0.00000000E+00  0.00000000E+00
  0.00000000E+00  0.00000000E+00  0.00000000E+00
  0.00000000E+00  0.00000000E+00  0.00000000E+00
