Ba Sr Ti  O                             
   1.00000000000000     
     7.9862448400754698    0.0000000000000000    0.0000000000000000
     0.0000000000000000    7.8511052631578941    0.0000000000000000
     0.0000000000000000    0.0000000000000000    7.8511052631578941
   Ba   Sr   Ti   O 
     4     4     8    24
Direct
  0.9954169245020701  0.0148452337889902  0.0471312855760126
  0.9953807799353903  0.5148532259074464  0.5471388668927905
  0.4954028195579567  0.5148534145509895  0.0471376726880584
  0.4953916612866502  0.0148524760578812  0.5471312378292140
  0.4918525758044165  0.0147810885861215  0.0470038511491675
  0.9918635794467920  0.5147519253621207  0.0470427218723300
  0.9918870838189627  0.0148021051642359  0.5469847532855985
  0.4919151705974228  0.5147610895655932  0.5469986468344660
  0.7406163340624580  0.2647839174660838  0.2970306830290956
  0.2406136888828385  0.2647959044544749  0.2970354108586400
  0.7406398342977042  0.7647966688015019  0.2970451099009128
  0.2406296798121466  0.7647889229966414  0.2970520105924113
  0.7406278850748252  0.2647970973669309  0.7970292318320771
  0.2406171960063645  0.2648096605965612  0.7970335294610431
  0.7406599970155251  0.7648150357276216  0.7970485264025965
  0.2406378865868755  0.7647951950796780  0.7970467067668521
  0.0024103581499671  0.2649042943029792  0.2971870947593611
  0.5024175232987496  0.2649322628327408  0.2973061594291671
  0.0024443391420142  0.7649058093299160  0.2972439067101296
  0.5024504967494021  0.7648749388816736  0.2972141827535387
  0.0024337794263546  0.2649815207814133  0.7973157216135425
  0.5024409981299082  0.2648270439056564  0.7971954619004157
  0.0024716242631632  0.7648126555899865  0.7972462270091979
  0.5024728204227408  0.7649590499882456  0.7972610545155185
  0.7517265452136470  0.0149023668414145  0.2980079196817814
  0.2516929165436537  0.0149233221791123  0.2964923585023514
  0.7516675621851359  0.5148914284581410  0.2965134741706725
  0.2516971237233042  0.5149141895162616  0.2980257022560480
  0.7518070342980587  0.0148998006838629  0.7964753657460469
  0.2517203052657258  0.0149188282074156  0.7980413436030845
  0.7516793290442039  0.5148861969396986  0.7980202026953864
  0.2517811670598837  0.5149118333909400  0.7964704953770037
  0.7516363334448970  0.2655463937210215  0.0472642476240623
  0.2517210836049759  0.2642295726171519  0.0472652357492001
  0.7517566221289878  0.7641752688603139  0.0472609661567049
  0.2517427414131187  0.7656149049025575  0.0472607777778352
  0.7517106997245742  0.2641767500032675  0.5472547481345899
  0.2515973382500369  0.2655613114502801  0.5472563938265943
  0.7517031791316171  0.7655901713837737  0.5472487090295823
  0.2516999636432994  0.7642394055128634  0.5472542025921742
 
  0.00000000E+00  0.00000000E+00  0.00000000E+00
  0.00000000E+00  0.00000000E+00  0.00000000E+00
  0.00000000E+00  0.00000000E+00  0.00000000E+00
  0.00000000E+00  0.00000000E+00  0.00000000E+00
  0.00000000E+00  0.00000000E+00  0.00000000E+00
  0.00000000E+00  0.00000000E+00  0.00000000E+00
  0.00000000E+00  0.00000000E+00  0.00000000E+00
  0.00000000E+00  0.00000000E+00  0.00000000E+00
  0.00000000E+00  0.00000000E+00  0.00000000E+00
  0.00000000E+00  0.00000000E+00  0.00000000E+00
  0.00000000E+00  0.00000000E+00  0.00000000E+00
  0.00000000E+00  0.00000000E+00  0.00000000E+00
  0.00000000E+00  0.00000000E+00  0.00000000E+00
  0.00000000E+00  0.00000000E+00  0.00000000E+00
  0.00000000E+00  0.00000000E+00  0.00000000E+00
  0.00000000E+00  0.00000000E+00  0.00000000E+00
  0.00000000E+00  0.00000000E+00  0.00000000E+00
  0.00000000E+00  0.00000000E+00  0.00000000E+00
  0.00000000E+00  0.00000000E+00  0.00000000E+00
  0.00000000E+00  0.00000000E+00  0.00000000E+00
  0.00000000E+00  0.00000000E+00  0.00000000E+00
  0.00000000E+00  0.00000000E+00  0.00000000E+00
  0.00000000E+00  0.00000000E+00  0.00000000E+00
  0.00000000E+00  0.00000000E+00  0.00000000E+00
  0.00000000E+00  0.00000000E+00  0.00000000E+00
  0.00000000E+00  0.00000000E+00  0.00000000E+00
  0.00000000E+00  0.00000000E+00  0.00000000E+00
  0.00000000E+00  0.00000000E+00  0.00000000E+00
  0.00000000E+00  0.00000000E+00  0.00000000E+00
  0.00000000E+00  0.00000000E+00  0.00000000E+00
  0.00000000E+00  0.00000000E+00  0.00000000E+00
  0.00000000E+00  0.00000000E+00  0.00000000E+00
  0.00000000E+00  0.00000000E+00  0.00000000E+00
  0.00000000E+00  0.00000000E+00  0.00000000E+00
  0.00000000E+00  0.00000000E+00  0.00000000E+00
  0.00000000E+00  0.00000000E+00  0.00000000E+00
  0.00000000E+00  0.00000000E+00  0.00000000E+00
  0.00000000E+00  0.00000000E+00  0.00000000E+00
  0.00000000E+00  0.00000000E+00  0.00000000E+00
  0.00000000E+00  0.00000000E+00  0.00000000E+00
