Ba Sr Ti  O                             
   1.00000000000000     
     7.9717096990380725    0.0000000000000000    0.0000000000000000
     0.0000000000000000    7.8634368421052638    0.0000000000000000
     0.0000000000000000    0.0000000000000000    7.8634368421052638
   Ba   Sr   Ti   O 
     4     4     8    24
Direct
  0.9956175543195175  0.0148167872944590  0.0470987252668951
  0.9955923465075824  0.5148727728371808  0.5471575890277890
  0.4956063492440618  0.5148725440922850  0.0471050711202928
  0.4955971013690922  0.0148248750532257  0.5471492076385317
  0.4923809242461969  0.0148057254785133  0.0470235338151555
  0.9923938794694948  0.5146876214005648  0.0470892616536837
  0.9924224673972104  0.0148503710212755  0.5469153657486313
  0.4924785037162482  0.5146958492419477  0.5469358484857186
  0.7412168868697337  0.2647491973346044  0.2969818726293483
  0.2412272918091363  0.2647588897899363  0.2969874832775399
  0.7412155919497329  0.7647607971051325  0.2970366844271811
  0.2412207758437462  0.7647545496307483  0.2970461911431325
  0.7412135756311743  0.2647990955749542  0.7969799689980184
  0.2412118267185759  0.2648066359637972  0.7969900498038499
  0.7412147861656375  0.7648209467625001  0.7970401257647796
  0.2412076354296761  0.7647964616538443  0.7970528500145523
  0.0020316709529209  0.2649209210103456  0.2971978704827397
  0.5020398195684848  0.2649506408463280  0.2973395058296842
  0.0020827265568109  0.7649052424072321  0.2972135956921830
  0.5020920883399714  0.7648879494155434  0.2972394394392104
  0.0020771860425378  0.2650037437309731  0.7973503946822116
  0.5020792109772957  0.2647998434932470  0.7972205590229882
  0.0021254979819962  0.7647880836824903  0.7972951627019822
  0.5021280456055921  0.7649786624615947  0.7972501667424584
  0.7514194591478106  0.0149122616853900  0.2979277874862997
  0.2513698659660147  0.0149413727799728  0.2965740082728183
  0.7513452280479781  0.5148969246204090  0.2966265683809202
  0.2514000959627621  0.5149314185212275  0.2979774696032505
  0.7515348590711962  0.0148958834851936  0.7965639556794301
  0.2513952592167381  0.0149265556491667  0.7979918948688230
  0.7513478940300181  0.5148809631229554  0.7979288611290446
  0.2515225129522552  0.5149167457137503  0.7965229797880380
  0.7513296637640762  0.2655225216140967  0.0472846002842372
  0.2514036641357317  0.2643066076204144  0.0472830403593260
  0.7514658900857609  0.7642020507282982  0.0472644941504505
  0.2514809272065798  0.7655977914641524  0.0472663773082612
  0.7514141431819608  0.2642163423511494  0.5472727245327951
  0.2512854675737446  0.2655167503258007  0.5472771227063165
  0.7514502910864479  0.7655770171727755  0.5472539849289932
  0.2513960168043101  0.7643128676160824  0.5472598036976921
 
  0.00000000E+00  0.00000000E+00  0.00000000E+00
  0.00000000E+00  0.00000000E+00  0.00000000E+00
  0.00000000E+00  0.00000000E+00  0.00000000E+00
  0.00000000E+00  0.00000000E+00  0.00000000E+00
  0.00000000E+00  0.00000000E+00  0.00000000E+00
  0.00000000E+00  0.00000000E+00  0.00000000E+00
  0.00000000E+00  0.00000000E+00  0.00000000E+00
  0.00000000E+00  0.00000000E+00  0.00000000E+00
  0.00000000E+00  0.00000000E+00  0.00000000E+00
  0.00000000E+00  0.00000000E+00  0.00000000E+00
  0.00000000E+00  0.00000000E+00  0.00000000E+00
  0.00000000E+00  0.00000000E+00  0.00000000E+00
  0.00000000E+00  0.00000000E+00  0.00000000E+00
  0.00000000E+00  0.00000000E+00  0.00000000E+00
  0.00000000E+00  0.00000000E+00  0.00000000E+00
  0.00000000E+00  0.00000000E+00  0.00000000E+00
  0.00000000E+00  0.00000000E+00  0.00000000E+00
  0.00000000E+00  0.00000000E+00  0.00000000E+00
  0.00000000E+00  0.00000000E+00  0.00000000E+00
  0.00000000E+00  0.00000000E+00  0.00000000E+00
  0.00000000E+00  0.00000000E+00  0.00000000E+00
  0.00000000E+00  0.00000000E+00  0.00000000E+00
  0.00000000E+00  0.00000000E+00  0.00000000E+00
  0.00000000E+00  0.00000000E+00  0.00000000E+00
  0.00000000E+00  0.00000000E+00  0.00000000E+00
  0.00000000E+00  0.00000000E+00  0.00000000E+00
  0.00000000E+00  0.00000000E+00  0.00000000E+00
  0.00000000E+00  0.00000000E+00  0.00000000E+00
  0.00000000E+00  0.00000000E+00  0.00000000E+00
  0.00000000E+00  0.00000000E+00  0.00000000E+00
  0.00000000E+00  0.00000000E+00  0.00000000E+00
  0.00000000E+00  0.00000000E+00  0.00000000E+00
  0.00000000E+00  0.00000000E+00  0.00000000E+00
  0.00000000E+00  0.00000000E+00  0.00000000E+00
  0.00000000E+00  0.00000000E+00  0.00000000E+00
  0.00000000E+00  0.00000000E+00  0.00000000E+00
  0.00000000E+00  0.00000000E+00  0.00000000E+00
  0.00000000E+00  0.00000000E+00  0.00000000E+00
  0.00000000E+00  0.00000000E+00  0.00000000E+00
  0.00000000E+00  0.00000000E+00  0.00000000E+00
