Ba Sr Ti  O                             
   1.00000000000000     
     8.0033388876765947    0.0000000000000000    0.0000000000000000
     0.0000000000000000    7.8387736842105253    0.0000000000000000
     0.0000000000000000    0.0000000000000000    7.8387736842105253
   Ba   Sr   Ti   O 
     4     4     8    24
Direct
  0.9950966722909539  0.0148594140636460  0.0471402772650559
  0.9950870915017771  0.5148599092368485  0.5471417085654029
  0.4950953901508239  0.5148616883541065  0.0471383704224141
  0.4950873195944941  0.0148595236461832  0.5471373411210937
  0.4911365579758963  0.0148086205093737  0.0470123951039389
  0.9911570190461700  0.5147091756127045  0.0470623496440635
  0.9911774128610703  0.0148375677161158  0.5469221959960603
  0.4912401273037664  0.5147208020155392  0.5469429994845568
  0.7398870158646802  0.2647777729233694  0.2970159262925640
  0.2398941361577764  0.2647865213691731  0.2970149234289193
  0.7398999944369278  0.7648077795606889  0.2970264977115543
  0.2398997407304038  0.7648072184809184  0.2970288821922645
  0.7398885998271079  0.2647873386049844  0.7970365107443321
  0.2398882288418921  0.2647982056165841  0.7970460265551863
  0.7399051177900182  0.7648291081388837  0.7970588059443026
  0.2398986906000173  0.7648156899805394  0.7970631205090325
  0.0028621922233557  0.2648753627190015  0.2971659428713305
  0.5028703602615230  0.2649149242456768  0.2972911098655943
  0.0028992843181668  0.7649226739875757  0.2972339844583777
  0.5029116591402946  0.7648866813933302  0.2971927157466900
  0.0028950950668518  0.2649587406172195  0.7973302860372348
  0.5029069519599971  0.2648073118219951  0.7972095322422383
  0.0029313710222184  0.7648315001958619  0.7972591527924977
  0.5029481530204385  0.7649782626779866  0.7972890545071607
  0.7521216218638266  0.0149041334589317  0.2980904899300596
  0.2520815533122059  0.0149264853736182  0.2964129253069968
  0.7520775035046624  0.5148739649444527  0.2964218566073846
  0.2520926330884540  0.5149002040675265  0.2980983896993211
  0.7521852948334175  0.0149016945922799  0.7964135793120939
  0.2521086772413600  0.0149248452087645  0.7981599752436546
  0.7520844554172340  0.5148714769597599  0.7981452149825029
  0.2521614658770171  0.5148977329998558  0.7964210061467021
  0.7520174488635103  0.2655822076113419  0.0472698997636288
  0.2521078822487043  0.2641513434712494  0.0472717896701981
  0.7521384530119787  0.7641334702003661  0.0472668857995568
  0.2521184970394595  0.7657142714384271  0.0472713662919561
  0.7521107386263098  0.2641143805137041  0.5472417206133521
  0.2519891886799224  0.2656115867718078  0.5472445461199258
  0.7520858809794775  0.7656645098882172  0.5472394278953618
  0.2520895043716577  0.7641881807649484  0.5472430137006952
 
  0.00000000E+00  0.00000000E+00  0.00000000E+00
  0.00000000E+00  0.00000000E+00  0.00000000E+00
  0.00000000E+00  0.00000000E+00  0.00000000E+00
  0.00000000E+00  0.00000000E+00  0.00000000E+00
  0.00000000E+00  0.00000000E+00  0.00000000E+00
  0.00000000E+00  0.00000000E+00  0.00000000E+00
  0.00000000E+00  0.00000000E+00  0.00000000E+00
  0.00000000E+00  0.00000000E+00  0.00000000E+00
  0.00000000E+00  0.00000000E+00  0.00000000E+00
  0.00000000E+00  0.00000000E+00  0.00000000E+00
  0.00000000E+00  0.00000000E+00  0.00000000E+00
  0.00000000E+00  0.00000000E+00  0.00000000E+00
  0.00000000E+00  0.00000000E+00  0.00000000E+00
  0.00000000E+00  0.00000000E+00  0.00000000E+00
  0.00000000E+00  0.00000000E+00  0.00000000E+00
  0.00000000E+00  0.00000000E+00  0.00000000E+00
  0.00000000E+00  0.00000000E+00  0.00000000E+00
  0.00000000E+00  0.00000000E+00  0.00000000E+00
  0.00000000E+00  0.00000000E+00  0.00000000E+00
  0.00000000E+00  0.00000000E+00  0.00000000E+00
  0.00000000E+00  0.00000000E+00  0.00000000E+00
  0.00000000E+00  0.00000000E+00  0.00000000E+00
  0.00000000E+00  0.00000000E+00  0.00000000E+00
  0.00000000E+00  0.00000000E+00  0.00000000E+00
  0.00000000E+00  0.00000000E+00  0.00000000E+00
  0.00000000E+00  0.00000000E+00  0.00000000E+00
  0.00000000E+00  0.00000000E+00  0.00000000E+00
  0.00000000E+00  0.00000000E+00  0.00000000E+00
  0.00000000E+00  0.00000000E+00  0.00000000E+00
  0.00000000E+00  0.00000000E+00  0.00000000E+00
  0.00000000E+00  0.00000000E+00  0.00000000E+00
  0.00000000E+00  0.00000000E+00  0.00000000E+00
  0.00000000E+00  0.00000000E+00  0.00000000E+00
  0.00000000E+00  0.00000000E+00  0.00000000E+00
  0.00000000E+00  0.00000000E+00  0.00000000E+00
  0.00000000E+00  0.00000000E+00  0.00000000E+00
  0.00000000E+00  0.00000000E+00  0.00000000E+00
  0.00000000E+00  0.00000000E+00  0.00000000E+00
  0.00000000E+00  0.00000000E+00  0.00000000E+00
  0.00000000E+00  0.00000000E+00  0.00000000E+00
